# ASCII 1D datafile generated by TiberCAD
# 1 x
# 2 Strain_11
# 3 Strain_22
# 4 Strain_33
# 5 Strain_12
# 6 Strain_23
# 7 Strain_13
# 8 Stress_11
# 9 Stress_22
# 10 Stress_33
# 11 Stress_12
# 12 Stress_23
# 13 Stress_13
# 14 Displacement_x
# 15 Displacement_y
# 16 Displacement_z
# x Strain_11 Strain_22 Strain_33 Strain_12 Strain_23 Strain_13 Stress_11 Stress_22 Stress_33 Stress_12 Stress_23 Stress_13 Displacement_x Displacement_y Displacement_z 
0 1.84499e-13 0 0 0 0 0 7.35411e-11 1.91879e-11 1.91879e-11 0 1.31094e-27 0 7.35411e-40 0 0 
9.97664 1.84499e-13 0 0 0 0 0 7.35411e-11 1.91879e-11 1.91879e-11 0 1.31094e-27 0 1.84068e-21 0 0 
19.8873 1.84499e-13 0 0 0 0 0 7.35411e-11 1.91879e-11 1.91879e-11 0 1.31094e-27 0 3.66918e-21 0 0 
29.7324 1.84499e-13 0 0 0 0 0 7.35411e-11 1.91879e-11 1.91879e-11 0 1.31094e-27 0 5.48559e-21 0 0 
39.5124 1.84499e-13 0 0 0 0 0 7.35411e-11 1.91879e-11 1.91879e-11 0 1.31094e-27 0 7.28998e-21 0 0 
49.2277 1.84499e-13 0 0 0 0 0 7.35411e-11 1.91879e-11 1.91879e-11 0 1.31094e-27 0 9.08244e-21 0 0 
58.8787 1.84499e-13 0 0 0 0 0 7.35411e-11 1.91879e-11 1.91879e-11 0 1.31094e-27 0 1.0863e-20 0 0 
68.4659 1.84499e-13 0 0 0 0 0 7.35411e-11 1.91879e-11 1.91879e-11 0 1.31094e-27 0 1.26319e-20 0 0 
77.9897 1.84499e-13 0 0 0 0 0 7.35411e-11 1.91879e-11 1.91879e-11 0 1.31094e-27 0 1.4389e-20 0 0 
87.4504 1.84499e-13 0 0 0 0 0 7.35411e-11 1.91879e-11 1.91879e-11 0 1.31094e-27 0 1.61345e-20 0 0 
96.8487 1.84499e-13 0 0 0 0 0 7.35411e-11 1.91879e-11 1.91879e-11 0 1.31094e-27 0 1.78684e-20 0 0 
106.185 1.84499e-13 0 0 0 0 0 7.35411e-11 1.91879e-11 1.91879e-11 0 1.31094e-27 0 1.95909e-20 0 0 
115.459 1.84499e-13 0 0 0 0 0 7.35411e-11 1.91879e-11 1.91879e-11 0 1.31094e-27 0 2.1302e-20 0 0 
124.672 1.84499e-13 0 0 0 0 0 7.35411e-11 1.91879e-11 1.91879e-11 0 1.31094e-27 0 2.30018e-20 0 0 
133.824 1.84499e-13 0 0 0 0 0 7.35411e-11 1.91879e-11 1.91879e-11 0 1.31094e-27 0 2.46903e-20 0 0 
142.915 1.84499e-13 0 0 0 0 0 7.35411e-11 1.91879e-11 1.91879e-11 0 1.31094e-27 0 2.63677e-20 0 0 
151.947 1.84499e-13 0 0 0 0 0 7.35411e-11 1.91879e-11 1.91879e-11 0 1.31094e-27 0 2.8034e-20 0 0 
160.918 1.84499e-13 0 0 0 0 0 7.35411e-11 1.91879e-11 1.91879e-11 0 1.31094e-27 0 2.96892e-20 0 0 
169.831 1.84499e-13 0 0 0 0 0 7.35411e-11 1.91879e-11 1.91879e-11 0 1.31094e-27 0 3.13335e-20 0 0 
178.684 1.84499e-13 0 0 0 0 0 7.35411e-11 1.91879e-11 1.91879e-11 0 1.31094e-27 0 3.29669e-20 0 0 
187.479 1.84499e-13 0 0 0 0 0 7.35411e-11 1.91879e-11 1.91879e-11 0 1.31094e-27 0 3.45895e-20 0 0 
196.215 1.84499e-13 0 0 0 0 0 7.35411e-11 1.91879e-11 1.91879e-11 0 1.31094e-27 0 3.62014e-20 0 0 
204.894 1.84499e-13 0 0 0 0 0 7.35411e-11 1.91879e-11 1.91879e-11 0 1.31094e-27 0 3.78026e-20 0 0 
213.515 1.84499e-13 0 0 0 0 0 7.35411e-11 1.91879e-11 1.91879e-11 0 1.31094e-27 0 3.93933e-20 0 0 
222.08 1.84499e-13 0 0 0 0 0 7.35411e-11 1.91879e-11 1.91879e-11 0 1.31094e-27 0 4.09734e-20 0 0 
230.587 1.84499e-13 0 0 0 0 0 7.35411e-11 1.91879e-11 1.91879e-11 0 1.31094e-27 0 4.2543e-20 0 0 
239.039 1.84499e-13 0 0 0 0 0 7.35411e-11 1.91879e-11 1.91879e-11 0 1.31094e-27 0 4.41023e-20 0 0 
247.434 1.84499e-13 0 0 0 0 0 7.35411e-11 1.91879e-11 1.91879e-11 0 1.31094e-27 0 4.56513e-20 0 0 
255.774 1.84499e-13 0 0 0 0 0 7.35411e-11 1.91879e-11 1.91879e-11 0 1.31094e-27 0 4.719e-20 0 0 
264.059 1.84499e-13 0 0 0 0 0 7.35411e-11 1.91879e-11 1.91879e-11 0 1.31094e-27 0 4.87185e-20 0 0 
272.289 1.84499e-13 0 0 0 0 0 7.35411e-11 1.91879e-11 1.91879e-11 0 1.31094e-27 0 5.0237e-20 0 0 
280.465 1.84499e-13 0 0 0 0 0 7.35411e-11 1.91879e-11 1.91879e-11 0 1.31094e-27 0 5.17453e-20 0 0 
288.586 1.84499e-13 0 0 0 0 0 7.35411e-11 1.91879e-11 1.91879e-11 0 1.31094e-27 0 5.32438e-20 0 0 
296.654 1.84499e-13 0 0 0 0 0 7.35411e-11 1.91879e-11 1.91879e-11 0 1.31094e-27 0 5.47322e-20 0 0 
304.668 1.84499e-13 0 0 0 0 0 7.35411e-11 1.91879e-11 1.91879e-11 0 1.31094e-27 0 5.62109e-20 0 0 
312.63 1.84499e-13 0 0 0 0 0 7.35411e-11 1.91879e-11 1.91879e-11 0 1.31094e-27 0 5.76798e-20 0 0 
320.539 1.84499e-13 0 0 0 0 0 7.35411e-11 1.91879e-11 1.91879e-11 0 1.31094e-27 0 5.91389e-20 0 0 
328.395 1.84499e-13 0 0 0 0 0 7.35411e-11 1.91879e-11 1.91879e-11 0 1.31094e-27 0 6.05884e-20 0 0 
336.199 1.84499e-13 0 0 0 0 0 7.35411e-11 1.91879e-11 1.91879e-11 0 1.31094e-27 0 6.20283e-20 0 0 
343.952 1.84499e-13 0 0 0 0 0 7.35411e-11 1.91879e-11 1.91879e-11 0 1.31094e-27 0 6.34587e-20 0 0 
351.654 1.84499e-13 0 0 0 0 0 7.35411e-11 1.91879e-11 1.91879e-11 0 1.31094e-27 0 6.48797e-20 0 0 
359.305 1.84499e-13 0 0 0 0 0 7.35411e-11 1.91879e-11 1.91879e-11 0 1.31094e-27 0 6.62912e-20 0 0 
366.905 1.84499e-13 0 0 0 0 0 7.35411e-11 1.91879e-11 1.91879e-11 0 1.31094e-27 0 6.76934e-20 0 0 
374.454 1.84499e-13 0 0 0 0 0 7.35411e-11 1.91879e-11 1.91879e-11 0 1.31094e-27 0 6.90863e-20 0 0 
381.954 1.84499e-13 0 0 0 0 0 7.35411e-11 1.91879e-11 1.91879e-11 0 1.31094e-27 0 7.047e-20 0 0 
389.404 1.84499e-13 0 0 0 0 0 7.35411e-11 1.91879e-11 1.91879e-11 0 1.31094e-27 0 7.18445e-20 0 0 
396.805 1.84499e-13 0 0 0 0 0 7.35411e-11 1.91879e-11 1.91879e-11 0 1.31094e-27 0 7.321e-20 0 0 
404.157 1.84499e-13 0 0 0 0 0 7.35411e-11 1.91879e-11 1.91879e-11 0 1.31094e-27 0 7.45664e-20 0 0 
411.461 1.84499e-13 0 0 0 0 0 7.35411e-11 1.91879e-11 1.91879e-11 0 1.31094e-27 0 7.59139e-20 0 0 
418.716 1.84499e-13 0 0 0 0 0 7.35411e-11 1.91879e-11 1.91879e-11 0 1.31094e-27 0 7.72524e-20 0 0 
425.923 1.84499e-13 0 0 0 0 0 7.35411e-11 1.91879e-11 1.91879e-11 0 1.31094e-27 0 7.85821e-20 0 0 
433.082 1.84499e-13 0 0 0 0 0 7.35411e-11 1.91879e-11 1.91879e-11 0 1.31094e-27 0 7.9903e-20 0 0 
440.194 1.84499e-13 0 0 0 0 0 7.35411e-11 1.91879e-11 1.91879e-11 0 1.31094e-27 0 8.12152e-20 0 0 
447.259 1.84499e-13 0 0 0 0 0 7.35411e-11 1.91879e-11 1.91879e-11 0 1.31094e-27 0 8.25187e-20 0 0 
454.277 1.84499e-13 0 0 0 0 0 7.35411e-11 1.91879e-11 1.91879e-11 0 1.31094e-27 0 8.38135e-20 0 0 
461.249 1.84499e-13 0 0 0 0 0 7.35411e-11 1.91879e-11 1.91879e-11 0 1.31094e-27 0 8.50998e-20 0 0 
468.175 1.84499e-13 0 0 0 0 0 7.35411e-11 1.91879e-11 1.91879e-11 0 1.31094e-27 0 8.63776e-20 0 0 
475.055 1.84499e-13 0 0 0 0 0 7.35411e-11 1.91879e-11 1.91879e-11 0 1.31094e-27 0 8.76469e-20 0 0 
481.889 1.84499e-13 0 0 0 0 0 7.35411e-11 1.91879e-11 1.91879e-11 0 1.31094e-27 0 8.89079e-20 0 0 
488.678 1.84499e-13 0 0 0 0 0 7.35411e-11 1.91879e-11 1.91879e-11 0 1.31094e-27 0 9.01604e-20 0 0 
495.423 1.84499e-13 0 0 0 0 0 7.35411e-11 1.91879e-11 1.91879e-11 0 1.31094e-27 0 9.14048e-20 0 0 
502.122 1.84499e-13 0 0 0 0 0 7.35411e-11 1.91879e-11 1.91879e-11 0 1.31094e-27 0 9.26408e-20 0 0 
508.778 1.84499e-13 0 0 0 0 0 7.35411e-11 1.91879e-11 1.91879e-11 0 1.31094e-27 0 9.38687e-20 0 0 
515.389 1.84499e-13 0 0 0 0 0 7.35411e-11 1.91879e-11 1.91879e-11 0 1.31094e-27 0 9.50885e-20 0 0 
521.956 1.84499e-13 0 0 0 0 0 7.35411e-11 1.91879e-11 1.91879e-11 0 1.31094e-27 0 9.63002e-20 0 0 
528.481 1.84499e-13 0 0 0 0 0 7.35411e-11 1.91879e-11 1.91879e-11 0 1.31094e-27 0 9.75039e-20 0 0 
534.962 1.84499e-13 0 0 0 0 0 7.35411e-11 1.91879e-11 1.91879e-11 0 1.31094e-27 0 9.86997e-20 0 0 
541.4 1.84499e-13 0 0 0 0 0 7.35411e-11 1.91879e-11 1.91879e-11 0 1.31094e-27 0 9.98875e-20 0 0 
547.795 1.84499e-13 0 0 0 0 0 7.35411e-11 1.91879e-11 1.91879e-11 0 1.31094e-27 0 1.01067e-19 0 0 
554.149 1.84499e-13 0 0 0 0 0 7.35411e-11 1.91879e-11 1.91879e-11 0 1.31094e-27 0 1.0224e-19 0 0 
560.46 1.84499e-13 0 0 0 0 0 7.35411e-11 1.91879e-11 1.91879e-11 0 1.31094e-27 0 1.03404e-19 0 0 
566.729 1.84499e-13 0 0 0 0 0 7.35411e-11 1.91879e-11 1.91879e-11 0 1.31094e-27 0 1.04561e-19 0 0 
572.957 1.84499e-13 0 0 0 0 0 7.35411e-11 1.91879e-11 1.91879e-11 0 1.31094e-27 0 1.0571e-19 0 0 
579.144 1.84499e-13 0 0 0 0 0 7.35411e-11 1.91879e-11 1.91879e-11 0 1.31094e-27 0 1.06851e-19 0 0 
585.29 1.84499e-13 0 0 0 0 0 7.35411e-11 1.91879e-11 1.91879e-11 0 1.31094e-27 0 1.07985e-19 0 0 
591.395 1.84499e-13 0 0 0 0 0 7.35411e-11 1.91879e-11 1.91879e-11 0 1.31094e-27 0 1.09112e-19 0 0 
597.46 1.84499e-13 0 0 0 0 0 7.35411e-11 1.91879e-11 1.91879e-11 0 1.31094e-27 0 1.10231e-19 0 0 
603.485 1.84499e-13 0 0 0 0 0 7.35411e-11 1.91879e-11 1.91879e-11 0 1.31094e-27 0 1.11342e-19 0 0 
609.47 1.84499e-13 0 0 0 0 0 7.35411e-11 1.91879e-11 1.91879e-11 0 1.31094e-27 0 1.12446e-19 0 0 
615.415 1.84499e-13 0 0 0 0 0 7.35411e-11 1.91879e-11 1.91879e-11 0 1.31094e-27 0 1.13543e-19 0 0 
621.321 1.84499e-13 0 0 0 0 0 7.35411e-11 1.91879e-11 1.91879e-11 0 1.31094e-27 0 1.14633e-19 0 0 
627.188 1.84499e-13 0 0 0 0 0 7.35411e-11 1.91879e-11 1.91879e-11 0 1.31094e-27 0 1.15715e-19 0 0 
633.016 1.84499e-13 0 0 0 0 0 7.35411e-11 1.91879e-11 1.91879e-11 0 1.31094e-27 0 1.16791e-19 0 0 
638.805 1.84499e-13 0 0 0 0 0 7.35411e-11 1.91879e-11 1.91879e-11 0 1.31094e-27 0 1.17859e-19 0 0 
644.557 1.84499e-13 0 0 0 0 0 7.35411e-11 1.91879e-11 1.91879e-11 0 1.31094e-27 0 1.1892e-19 0 0 
650.27 1.84499e-13 0 0 0 0 0 7.35411e-11 1.91879e-11 1.91879e-11 0 1.31094e-27 0 1.19974e-19 0 0 
655.945 1.84499e-13 0 0 0 0 0 7.35411e-11 1.91879e-11 1.91879e-11 0 1.31094e-27 0 1.21021e-19 0 0 
661.583 1.84499e-13 0 0 0 0 0 7.35411e-11 1.91879e-11 1.91879e-11 0 1.31094e-27 0 1.22061e-19 0 0 
667.184 1.84499e-13 0 0 0 0 0 7.35411e-11 1.91879e-11 1.91879e-11 0 1.31094e-27 0 1.23094e-19 0 0 
672.747 1.84499e-13 0 0 0 0 0 7.35411e-11 1.91879e-11 1.91879e-11 0 1.31094e-27 0 1.24121e-19 0 0 
678.274 1.84499e-13 0 0 0 0 0 7.35411e-11 1.91879e-11 1.91879e-11 0 1.31094e-27 0 1.25141e-19 0 0 
683.764 1.84499e-13 0 0 0 0 0 7.35411e-11 1.91879e-11 1.91879e-11 0 1.31094e-27 0 1.26154e-19 0 0 
689.218 1.84499e-13 0 0 0 0 0 7.35411e-11 1.91879e-11 1.91879e-11 0 1.31094e-27 0 1.2716e-19 0 0 
694.636 1.84499e-13 0 0 0 0 0 7.35411e-11 1.91879e-11 1.91879e-11 0 1.31094e-27 0 1.28159e-19 0 0 
700.018 1.84499e-13 0 0 0 0 0 7.35411e-11 1.91879e-11 1.91879e-11 0 1.31094e-27 0 1.29152e-19 0 0 
705.364 1.84499e-13 0 0 0 0 0 7.35411e-11 1.91879e-11 1.91879e-11 0 1.31094e-27 0 1.30139e-19 0 0 
710.675 1.84499e-13 0 0 0 0 0 7.35411e-11 1.91879e-11 1.91879e-11 0 1.31094e-27 0 1.31119e-19 0 0 
715.951 1.84499e-13 0 0 0 0 0 7.35411e-11 1.91879e-11 1.91879e-11 0 1.31094e-27 0 1.32092e-19 0 0 
721.192 1.84499e-13 0 0 0 0 0 7.35411e-11 1.91879e-11 1.91879e-11 0 1.31094e-27 0 1.33059e-19 0 0 
726.398 1.84499e-13 0 0 0 0 0 7.35411e-11 1.91879e-11 1.91879e-11 0 1.31094e-27 0 1.3402e-19 0 0 
731.57 1.84499e-13 0 0 0 0 0 7.35411e-11 1.91879e-11 1.91879e-11 0 1.31094e-27 0 1.34974e-19 0 0 
736.708 1.84499e-13 0 0 0 0 0 7.35411e-11 1.91879e-11 1.91879e-11 0 1.31094e-27 0 1.35922e-19 0 0 
741.812 1.84499e-13 0 0 0 0 0 7.35411e-11 1.91879e-11 1.91879e-11 0 1.31094e-27 0 1.36863e-19 0 0 
746.882 1.84499e-13 0 0 0 0 0 7.35411e-11 1.91879e-11 1.91879e-11 0 1.31094e-27 0 1.37799e-19 0 0 
751.918 1.84499e-13 0 0 0 0 0 7.35411e-11 1.91879e-11 1.91879e-11 0 1.31094e-27 0 1.38728e-19 0 0 
756.921 1.84499e-13 0 0 0 0 0 7.35411e-11 1.91879e-11 1.91879e-11 0 1.31094e-27 0 1.39651e-19 0 0 
761.891 1.84499e-13 0 0 0 0 0 7.35411e-11 1.91879e-11 1.91879e-11 0 1.31094e-27 0 1.40568e-19 0 0 
766.828 1.84499e-13 0 0 0 0 0 7.35411e-11 1.91879e-11 1.91879e-11 0 1.31094e-27 0 1.41479e-19 0 0 
771.733 1.84499e-13 0 0 0 0 0 7.35411e-11 1.91879e-11 1.91879e-11 0 1.31094e-27 0 1.42384e-19 0 0 
776.605 1.84499e-13 0 0 0 0 0 7.35411e-11 1.91879e-11 1.91879e-11 0 1.31094e-27 0 1.43282e-19 0 0 
781.444 1.84499e-13 0 0 0 0 0 7.35411e-11 1.91879e-11 1.91879e-11 0 1.31094e-27 0 1.44175e-19 0 0 
786.252 1.84499e-13 0 0 0 0 0 7.35411e-11 1.91879e-11 1.91879e-11 0 1.31094e-27 0 1.45062e-19 0 0 
791.028 1.84499e-13 0 0 0 0 0 7.35411e-11 1.91879e-11 1.91879e-11 0 1.31094e-27 0 1.45944e-19 0 0 
795.773 1.84499e-13 0 0 0 0 0 7.35411e-11 1.91879e-11 1.91879e-11 0 1.31094e-27 0 1.46819e-19 0 0 
800.486 1.84499e-13 0 0 0 0 0 7.35411e-11 1.91879e-11 1.91879e-11 0 1.31094e-27 0 1.47688e-19 0 0 
805.167 1.84499e-13 0 0 0 0 0 7.35411e-11 1.91879e-11 1.91879e-11 0 1.31094e-27 0 1.48552e-19 0 0 
809.818 1.84499e-13 0 0 0 0 0 7.35411e-11 1.91879e-11 1.91879e-11 0 1.31094e-27 0 1.4941e-19 0 0 
814.438 1.84499e-13 0 0 0 0 0 7.35411e-11 1.91879e-11 1.91879e-11 0 1.31094e-27 0 1.50263e-19 0 0 
819.028 1.84499e-13 0 0 0 0 0 7.35411e-11 1.91879e-11 1.91879e-11 0 1.31094e-27 0 1.51109e-19 0 0 
823.587 1.84499e-13 0 0 0 0 0 7.35411e-11 1.91879e-11 1.91879e-11 0 1.31094e-27 0 1.51951e-19 0 0 
828.116 1.84499e-13 0 0 0 0 0 7.35411e-11 1.91879e-11 1.91879e-11 0 1.31094e-27 0 1.52786e-19 0 0 
832.615 1.84499e-13 0 0 0 0 0 7.35411e-11 1.91879e-11 1.91879e-11 0 1.31094e-27 0 1.53616e-19 0 0 
837.084 1.84499e-13 0 0 0 0 0 7.35411e-11 1.91879e-11 1.91879e-11 0 1.31094e-27 0 1.54441e-19 0 0 
841.524 1.84499e-13 0 0 0 0 0 7.35411e-11 1.91879e-11 1.91879e-11 0 1.31094e-27 0 1.5526e-19 0 0 
845.934 1.84499e-13 0 0 0 0 0 7.35411e-11 1.91879e-11 1.91879e-11 0 1.31094e-27 0 1.56074e-19 0 0 
850.316 1.84499e-13 0 0 0 0 0 7.35411e-11 1.91879e-11 1.91879e-11 0 1.31094e-27 0 1.56882e-19 0 0 
854.668 1.84499e-13 0 0 0 0 0 7.35411e-11 1.91879e-11 1.91879e-11 0 1.31094e-27 0 1.57685e-19 0 0 
858.991 1.84499e-13 0 0 0 0 0 7.35411e-11 1.91879e-11 1.91879e-11 0 1.31094e-27 0 1.58483e-19 0 0 
863.286 1.84499e-13 0 0 0 0 0 7.35411e-11 1.91879e-11 1.91879e-11 0 1.31094e-27 0 1.59275e-19 0 0 
867.553 1.84499e-13 0 0 0 0 0 7.35411e-11 1.91879e-11 1.91879e-11 0 1.31094e-27 0 1.60062e-19 0 0 
871.791 1.84499e-13 0 0 0 0 0 7.35411e-11 1.91879e-11 1.91879e-11 0 1.31094e-27 0 1.60844e-19 0 0 
876.001 1.84499e-13 0 0 0 0 0 7.35411e-11 1.91879e-11 1.91879e-11 0 1.31094e-27 0 1.61621e-19 0 0 
880.183 1.84499e-13 0 0 0 0 0 7.35411e-11 1.91879e-11 1.91879e-11 0 1.31094e-27 0 1.62393e-19 0 0 
884.338 1.84499e-13 0 0 0 0 0 7.35411e-11 1.91879e-11 1.91879e-11 0 1.31094e-27 0 1.63159e-19 0 0 
888.465 1.84499e-13 0 0 0 0 0 7.35411e-11 1.91879e-11 1.91879e-11 0 1.31094e-27 0 1.63921e-19 0 0 
892.565 1.84499e-13 0 0 0 0 0 7.35411e-11 1.91879e-11 1.91879e-11 0 1.31094e-27 0 1.64677e-19 0 0 
896.638 1.84499e-13 0 0 0 0 0 7.35411e-11 1.91879e-11 1.91879e-11 0 1.31094e-27 0 1.65428e-19 0 0 
900.684 1.84499e-13 0 0 0 0 0 7.35411e-11 1.91879e-11 1.91879e-11 0 1.31094e-27 0 1.66175e-19 0 0 
904.703 1.84499e-13 0 0 0 0 0 7.35411e-11 1.91879e-11 1.91879e-11 0 1.31094e-27 0 1.66916e-19 0 0 
908.695 1.84499e-13 0 0 0 0 0 7.35411e-11 1.91879e-11 1.91879e-11 0 1.31094e-27 0 1.67653e-19 0 0 
912.661 1.84499e-13 0 0 0 0 0 7.35411e-11 1.91879e-11 1.91879e-11 0 1.31094e-27 0 1.68385e-19 0 0 
916.601 1.84499e-13 0 0 0 0 0 7.35411e-11 1.91879e-11 1.91879e-11 0 1.31094e-27 0 1.69112e-19 0 0 
920.515 1.84499e-13 0 0 0 0 0 7.35411e-11 1.91879e-11 1.91879e-11 0 1.31094e-27 0 1.69834e-19 0 0 
924.403 1.84499e-13 0 0 0 0 0 7.35411e-11 1.91879e-11 1.91879e-11 0 1.31094e-27 0 1.70551e-19 0 0 
928.265 1.84499e-13 0 0 0 0 0 7.35411e-11 1.91879e-11 1.91879e-11 0 1.31094e-27 0 1.71264e-19 0 0 
932.101 1.84499e-13 0 0 0 0 0 7.35411e-11 1.91879e-11 1.91879e-11 0 1.31094e-27 0 1.71971e-19 0 0 
935.913 1.84499e-13 0 0 0 0 0 7.35411e-11 1.91879e-11 1.91879e-11 0 1.31094e-27 0 1.72675e-19 0 0 
939.699 1.84499e-13 0 0 0 0 0 7.35411e-11 1.91879e-11 1.91879e-11 0 1.31094e-27 0 1.73373e-19 0 0 
943.46 1.84499e-13 0 0 0 0 0 7.35411e-11 1.91879e-11 1.91879e-11 0 1.31094e-27 0 1.74067e-19 0 0 
947.196 1.84499e-13 0 0 0 0 0 7.35411e-11 1.91879e-11 1.91879e-11 0 1.31094e-27 0 1.74756e-19 0 0 
950.907 1.84499e-13 0 0 0 0 0 7.35411e-11 1.91879e-11 1.91879e-11 0 1.31094e-27 0 1.75441e-19 0 0 
954.594 1.84499e-13 0 0 0 0 0 7.35411e-11 1.91879e-11 1.91879e-11 0 1.31094e-27 0 1.76121e-19 0 0 
958.257 1.84499e-13 0 0 0 0 0 7.35411e-11 1.91879e-11 1.91879e-11 0 1.31094e-27 0 1.76797e-19 0 0 
961.895 1.84499e-13 0 0 0 0 0 7.35411e-11 1.91879e-11 1.91879e-11 0 1.31094e-27 0 1.77468e-19 0 0 
965.509 1.84499e-13 0 0 0 0 0 7.35411e-11 1.91879e-11 1.91879e-11 0 1.31094e-27 0 1.78135e-19 0 0 
969.099 1.84499e-13 0 0 0 0 0 7.35411e-11 1.91879e-11 1.91879e-11 0 1.31094e-27 0 1.78797e-19 0 0 
972.666 1.84499e-13 0 0 0 0 0 7.35411e-11 1.91879e-11 1.91879e-11 0 1.31094e-27 0 1.79455e-19 0 0 
976.209 1.84499e-13 0 0 0 0 0 7.35411e-11 1.91879e-11 1.91879e-11 0 1.31094e-27 0 1.80109e-19 0 0 
979.728 1.84499e-13 0 0 0 0 0 7.35411e-11 1.91879e-11 1.91879e-11 0 1.31094e-27 0 1.80758e-19 0 0 
983.224 1.84499e-13 0 0 0 0 0 7.35411e-11 1.91879e-11 1.91879e-11 0 1.31094e-27 0 1.81404e-19 0 0 
986.698 1.84499e-13 0 0 0 0 0 7.35411e-11 1.91879e-11 1.91879e-11 0 1.31094e-27 0 1.82044e-19 0 0 
990.148 1.84499e-13 0 0 0 0 0 7.35411e-11 1.91879e-11 1.91879e-11 0 1.31094e-27 0 1.82681e-19 0 0 
993.575 1.84499e-13 0 0 0 0 0 7.35411e-11 1.91879e-11 1.91879e-11 0 1.31094e-27 0 1.83313e-19 0 0 
996.98 1.84499e-13 0 0 0 0 0 7.35411e-11 1.91879e-11 1.91879e-11 0 1.31094e-27 0 1.83941e-19 0 0 
1000.36 1.84499e-13 0 0 0 0 0 7.35411e-11 1.91879e-11 1.91879e-11 0 1.31094e-27 0 1.84565e-19 0 0 
1003.72 1.84499e-13 0 0 0 0 0 7.35411e-11 1.91879e-11 1.91879e-11 0 1.31094e-27 0 1.85185e-19 0 0 
1007.06 1.84499e-13 0 0 0 0 0 7.35411e-11 1.91879e-11 1.91879e-11 0 1.31094e-27 0 1.85801e-19 0 0 
1010.37 1.84499e-13 0 0 0 0 0 7.35411e-11 1.91879e-11 1.91879e-11 0 1.31094e-27 0 1.86413e-19 0 0 
1013.67 1.84499e-13 0 0 0 0 0 7.35411e-11 1.91879e-11 1.91879e-11 0 1.31094e-27 0 1.8702e-19 0 0 
1016.94 1.84499e-13 0 0 0 0 0 7.35411e-11 1.91879e-11 1.91879e-11 0 1.31094e-27 0 1.87624e-19 0 0 
1020.19 1.84499e-13 0 0 0 0 0 7.35411e-11 1.91879e-11 1.91879e-11 0 1.31094e-27 0 1.88224e-19 0 0 
1023.42 1.84499e-13 0 0 0 0 0 7.35411e-11 1.91879e-11 1.91879e-11 0 1.31094e-27 0 1.88819e-19 0 0 
1026.63 1.84499e-13 0 0 0 0 0 7.35411e-11 1.91879e-11 1.91879e-11 0 1.31094e-27 0 1.89411e-19 0 0 
1029.81 1.84499e-13 0 0 0 0 0 7.35411e-11 1.91879e-11 1.91879e-11 0 1.31094e-27 0 1.89999e-19 0 0 
1032.98 1.84499e-13 0 0 0 0 0 7.35411e-11 1.91879e-11 1.91879e-11 0 1.31094e-27 0 1.90583e-19 0 0 
1036.12 1.84499e-13 0 0 0 0 0 7.35411e-11 1.91879e-11 1.91879e-11 0 1.31094e-27 0 1.91163e-19 0 0 
1039.24 1.84499e-13 0 0 0 0 0 7.35411e-11 1.91879e-11 1.91879e-11 0 1.31094e-27 0 1.91739e-19 0 0 
1042.35 1.84499e-13 0 0 0 0 0 7.35411e-11 1.91879e-11 1.91879e-11 0 1.31094e-27 0 1.92311e-19 0 0 
1045.43 1.84499e-13 0 0 0 0 0 7.35411e-11 1.91879e-11 1.91879e-11 0 1.31094e-27 0 1.9288e-19 0 0 
1048.49 1.84499e-13 0 0 0 0 0 7.35411e-11 1.91879e-11 1.91879e-11 0 1.31094e-27 0 1.93445e-19 0 0 
1051.53 1.84499e-13 0 0 0 0 0 7.35411e-11 1.91879e-11 1.91879e-11 0 1.31094e-27 0 1.94006e-19 0 0 
1054.55 1.84499e-13 0 0 0 0 0 7.35411e-11 1.91879e-11 1.91879e-11 0 1.31094e-27 0 1.94563e-19 0 0 
1057.55 1.84499e-13 0 0 0 0 0 7.35411e-11 1.91879e-11 1.91879e-11 0 1.31094e-27 0 1.95117e-19 0 0 
1060.54 1.84499e-13 0 0 0 0 0 7.35411e-11 1.91879e-11 1.91879e-11 0 1.31094e-27 0 1.95667e-19 0 0 
1063.5 1.84499e-13 0 0 0 0 0 7.35411e-11 1.91879e-11 1.91879e-11 0 1.31094e-27 0 1.96214e-19 0 0 
1066.44 1.84499e-13 0 0 0 0 0 7.35411e-11 1.91879e-11 1.91879e-11 0 1.31094e-27 0 1.96757e-19 0 0 
1069.36 1.84499e-13 0 0 0 0 0 7.35411e-11 1.91879e-11 1.91879e-11 0 1.31094e-27 0 1.97296e-19 0 0 
1072.27 1.84499e-13 0 0 0 0 0 7.35411e-11 1.91879e-11 1.91879e-11 0 1.31094e-27 0 1.97831e-19 0 0 
1075.15 1.84499e-13 0 0 0 0 0 7.35411e-11 1.91879e-11 1.91879e-11 0 1.31094e-27 0 1.98364e-19 0 0 
1078.01 1.84499e-13 0 0 0 0 0 7.35411e-11 1.91879e-11 1.91879e-11 0 1.31094e-27 0 1.98892e-19 0 0 
1080.86 1.84499e-13 0 0 0 0 0 7.35411e-11 1.91879e-11 1.91879e-11 0 1.31094e-27 0 1.99417e-19 0 0 
1083.69 1.84499e-13 0 0 0 0 0 7.35411e-11 1.91879e-11 1.91879e-11 0 1.31094e-27 0 1.99939e-19 0 0 
1086.5 1.84499e-13 0 0 0 0 0 7.35411e-11 1.91879e-11 1.91879e-11 0 1.31094e-27 0 2.00457e-19 0 0 
1089.29 1.84499e-13 0 0 0 0 0 7.35411e-11 1.91879e-11 1.91879e-11 0 1.31094e-27 0 2.00972e-19 0 0 
1092.06 1.84499e-13 0 0 0 0 0 7.35411e-11 1.91879e-11 1.91879e-11 0 1.31094e-27 0 2.01483e-19 0 0 
1094.81 1.84499e-13 0 0 0 0 0 7.35411e-11 1.91879e-11 1.91879e-11 0 1.31094e-27 0 2.01991e-19 0 0 
1097.55 1.84499e-13 0 0 0 0 0 7.35411e-11 1.91879e-11 1.91879e-11 0 1.31094e-27 0 2.02496e-19 0 0 
1100.26 1.84499e-13 0 0 0 0 0 7.35411e-11 1.91879e-11 1.91879e-11 0 1.31094e-27 0 2.02997e-19 0 0 
1102.96 1.84499e-13 0 0 0 0 0 7.35411e-11 1.91879e-11 1.91879e-11 0 1.31094e-27 0 2.03495e-19 0 0 
1105.64 1.84499e-13 0 0 0 0 0 7.35411e-11 1.91879e-11 1.91879e-11 0 1.31094e-27 0 2.0399e-19 0 0 
1108.31 1.84499e-13 0 0 0 0 0 7.35411e-11 1.91879e-11 1.91879e-11 0 1.31094e-27 0 2.04481e-19 0 0 
1110.95 1.84499e-13 0 0 0 0 0 7.35411e-11 1.91879e-11 1.91879e-11 0 1.31094e-27 0 2.04969e-19 0 0 
1113.58 1.84499e-13 0 0 0 0 0 7.35411e-11 1.91879e-11 1.91879e-11 0 1.31094e-27 0 2.05454e-19 0 0 
1116.19 1.84499e-13 0 0 0 0 0 7.35411e-11 1.91879e-11 1.91879e-11 0 1.31094e-27 0 2.05936e-19 0 0 
1118.78 1.84499e-13 0 0 0 0 0 7.35411e-11 1.91879e-11 1.91879e-11 0 1.31094e-27 0 2.06414e-19 0 0 
1121.36 1.84499e-13 0 0 0 0 0 7.35411e-11 1.91879e-11 1.91879e-11 0 1.31094e-27 0 2.0689e-19 0 0 
1123.92 1.84499e-13 0 0 0 0 0 7.35411e-11 1.91879e-11 1.91879e-11 0 1.31094e-27 0 2.07362e-19 0 0 
1126.46 1.84499e-13 0 0 0 0 0 7.35411e-11 1.91879e-11 1.91879e-11 0 1.31094e-27 0 2.07831e-19 0 0 
1128.99 1.84499e-13 0 0 0 0 0 7.35411e-11 1.91879e-11 1.91879e-11 0 1.31094e-27 0 2.08297e-19 0 0 
1131.5 1.84499e-13 0 0 0 0 0 7.35411e-11 1.91879e-11 1.91879e-11 0 1.31094e-27 0 2.0876e-19 0 0 
1133.99 1.84499e-13 0 0 0 0 0 7.35411e-11 1.91879e-11 1.91879e-11 0 1.31094e-27 0 2.0922e-19 0 0 
1136.47 1.84499e-13 0 0 0 0 0 7.35411e-11 1.91879e-11 1.91879e-11 0 1.31094e-27 0 2.09676e-19 0 0 
1138.93 1.84499e-13 0 0 0 0 0 7.35411e-11 1.91879e-11 1.91879e-11 0 1.31094e-27 0 2.1013e-19 0 0 
1141.37 1.84499e-13 0 0 0 0 0 7.35411e-11 1.91879e-11 1.91879e-11 0 1.31094e-27 0 2.10581e-19 0 0 
1143.8 1.84499e-13 0 0 0 0 0 7.35411e-11 1.91879e-11 1.91879e-11 0 1.31094e-27 0 2.11029e-19 0 0 
1146.21 1.84499e-13 0 0 0 0 0 7.35411e-11 1.91879e-11 1.91879e-11 0 1.31094e-27 0 2.11473e-19 0 0 
1148.6 1.84499e-13 0 0 0 0 0 7.35411e-11 1.91879e-11 1.91879e-11 0 1.31094e-27 0 2.11915e-19 0 0 
1150.98 1.84499e-13 0 0 0 0 0 7.35411e-11 1.91879e-11 1.91879e-11 0 1.31094e-27 0 2.12354e-19 0 0 
1153.34 1.84499e-13 0 0 0 0 0 7.35411e-11 1.91879e-11 1.91879e-11 0 1.31094e-27 0 2.1279e-19 0 0 
1155.69 1.84499e-13 0 0 0 0 0 7.35411e-11 1.91879e-11 1.91879e-11 0 1.31094e-27 0 2.13224e-19 0 0 
1158.02 1.84499e-13 0 0 0 0 0 7.35411e-11 1.91879e-11 1.91879e-11 0 1.31094e-27 0 2.13654e-19 0 0 
1160.34 1.84499e-13 0 0 0 0 0 7.35411e-11 1.91879e-11 1.91879e-11 0 1.31094e-27 0 2.14081e-19 0 0 
1162.64 1.84499e-13 0 0 0 0 0 7.35411e-11 1.91879e-11 1.91879e-11 0 1.31094e-27 0 2.14506e-19 0 0 
1164.93 1.84499e-13 0 0 0 0 0 7.35411e-11 1.91879e-11 1.91879e-11 0 1.31094e-27 0 2.14928e-19 0 0 
1167.2 1.84499e-13 0 0 0 0 0 7.35411e-11 1.91879e-11 1.91879e-11 0 1.31094e-27 0 2.15347e-19 0 0 
1169.46 1.84499e-13 0 0 0 0 0 7.35411e-11 1.91879e-11 1.91879e-11 0 1.31094e-27 0 2.15763e-19 0 0 
1171.7 1.84499e-13 0 0 0 0 0 7.35411e-11 1.91879e-11 1.91879e-11 0 1.31094e-27 0 2.16177e-19 0 0 
1173.92 1.84499e-13 0 0 0 0 0 7.35411e-11 1.91879e-11 1.91879e-11 0 1.31094e-27 0 2.16587e-19 0 0 
1176.14 1.84499e-13 0 0 0 0 0 7.35411e-11 1.91879e-11 1.91879e-11 0 1.31094e-27 0 2.16995e-19 0 0 
1178.33 1.84499e-13 0 0 0 0 0 7.35411e-11 1.91879e-11 1.91879e-11 0 1.31094e-27 0 2.17401e-19 0 0 
1180.52 1.84499e-13 0 0 0 0 0 7.35411e-11 1.91879e-11 1.91879e-11 0 1.31094e-27 0 2.17803e-19 0 0 
1182.68 1.84499e-13 0 0 0 0 0 7.35411e-11 1.91879e-11 1.91879e-11 0 1.31094e-27 0 2.18203e-19 0 0 
1184.84 1.84499e-13 0 0 0 0 0 7.35411e-11 1.91879e-11 1.91879e-11 0 1.31094e-27 0 2.18601e-19 0 0 
1186.98 1.84499e-13 0 0 0 0 0 7.35411e-11 1.91879e-11 1.91879e-11 0 1.31094e-27 0 2.18996e-19 0 0 
1189.1 1.84499e-13 0 0 0 0 0 7.35411e-11 1.91879e-11 1.91879e-11 0 1.31094e-27 0 2.19388e-19 0 0 
1191.21 1.84499e-13 0 0 0 0 0 7.35411e-11 1.91879e-11 1.91879e-11 0 1.31094e-27 0 2.19777e-19 0 0 
1193.31 1.84499e-13 0 0 0 0 0 7.35411e-11 1.91879e-11 1.91879e-11 0 1.31094e-27 0 2.20164e-19 0 0 
1195.39 1.84499e-13 0 0 0 0 0 7.35411e-11 1.91879e-11 1.91879e-11 0 1.31094e-27 0 2.20549e-19 0 0 
1197.46 1.84499e-13 0 0 0 0 0 7.35411e-11 1.91879e-11 1.91879e-11 0 1.31094e-27 0 2.2093e-19 0 0 
1199.52 1.84499e-13 0 0 0 0 0 7.35411e-11 1.91879e-11 1.91879e-11 0 1.31094e-27 0 2.2131e-19 0 0 
1201.56 1.84499e-13 0 0 0 0 0 7.35411e-11 1.91879e-11 1.91879e-11 0 1.31094e-27 0 2.21687e-19 0 0 
1203.59 1.84499e-13 0 0 0 0 0 7.35411e-11 1.91879e-11 1.91879e-11 0 1.31094e-27 0 2.22061e-19 0 0 
1205.61 1.84499e-13 0 0 0 0 0 7.35411e-11 1.91879e-11 1.91879e-11 0 1.31094e-27 0 2.22433e-19 0 0 
1207.61 1.84499e-13 0 0 0 0 0 7.35411e-11 1.91879e-11 1.91879e-11 0 1.31094e-27 0 2.22802e-19 0 0 
1209.6 1.84499e-13 0 0 0 0 0 7.35411e-11 1.91879e-11 1.91879e-11 0 1.31094e-27 0 2.23169e-19 0 0 
1211.57 1.84499e-13 0 0 0 0 0 7.35411e-11 1.91879e-11 1.91879e-11 0 1.31094e-27 0 2.23534e-19 0 0 
1213.54 1.84499e-13 0 0 0 0 0 7.35411e-11 1.91879e-11 1.91879e-11 0 1.31094e-27 0 2.23896e-19 0 0 
1215.49 1.84499e-13 0 0 0 0 0 7.35411e-11 1.91879e-11 1.91879e-11 0 1.31094e-27 0 2.24255e-19 0 0 
1217.42 1.84499e-13 0 0 0 0 0 7.35411e-11 1.91879e-11 1.91879e-11 0 1.31094e-27 0 2.24613e-19 0 0 
1219.35 1.84499e-13 0 0 0 0 0 7.35411e-11 1.91879e-11 1.91879e-11 0 1.31094e-27 0 2.24968e-19 0 0 
1221.26 1.84499e-13 0 0 0 0 0 7.35411e-11 1.91879e-11 1.91879e-11 0 1.31094e-27 0 2.2532e-19 0 0 
1223.16 1.84499e-13 0 0 0 0 0 7.35411e-11 1.91879e-11 1.91879e-11 0 1.31094e-27 0 2.25671e-19 0 0 
1225.04 1.84499e-13 0 0 0 0 0 7.35411e-11 1.91879e-11 1.91879e-11 0 1.31094e-27 0 2.26019e-19 0 0 
1226.92 1.84499e-13 0 0 0 0 0 7.35411e-11 1.91879e-11 1.91879e-11 0 1.31094e-27 0 2.26364e-19 0 0 
1228.78 1.84499e-13 0 0 0 0 0 7.35411e-11 1.91879e-11 1.91879e-11 0 1.31094e-27 0 2.26708e-19 0 0 
1230.63 1.84499e-13 0 0 0 0 0 7.35411e-11 1.91879e-11 1.91879e-11 0 1.31094e-27 0 2.27049e-19 0 0 
1232.46 1.84499e-13 0 0 0 0 0 7.35411e-11 1.91879e-11 1.91879e-11 0 1.31094e-27 0 2.27388e-19 0 0 
1234.29 1.84499e-13 0 0 0 0 0 7.35411e-11 1.91879e-11 1.91879e-11 0 1.31094e-27 0 2.27724e-19 0 0 
1236.1 1.84499e-13 0 0 0 0 0 7.35411e-11 1.91879e-11 1.91879e-11 0 1.31094e-27 0 2.28059e-19 0 0 
1237.9 1.84499e-13 0 0 0 0 0 7.35411e-11 1.91879e-11 1.91879e-11 0 1.31094e-27 0 2.28391e-19 0 0 
1239.69 1.84499e-13 0 0 0 0 0 7.35411e-11 1.91879e-11 1.91879e-11 0 1.31094e-27 0 2.28721e-19 0 0 
1241.47 1.84499e-13 0 0 0 0 0 7.35411e-11 1.91879e-11 1.91879e-11 0 1.31094e-27 0 2.29049e-19 0 0 
1243.23 1.84499e-13 0 0 0 0 0 7.35411e-11 1.91879e-11 1.91879e-11 0 1.31094e-27 0 2.29374e-19 0 0 
1244.98 1.84499e-13 0 0 0 0 0 7.35411e-11 1.91879e-11 1.91879e-11 0 1.31094e-27 0 2.29698e-19 0 0 
1246.73 1.84499e-13 0 0 0 0 0 7.35411e-11 1.91879e-11 1.91879e-11 0 1.31094e-27 0 2.30019e-19 0 0 
1248.46 1.84499e-13 0 0 0 0 0 7.35411e-11 1.91879e-11 1.91879e-11 0 1.31094e-27 0 2.30338e-19 0 0 
1250.17 1.84499e-13 0 0 0 0 0 7.35411e-11 1.91879e-11 1.91879e-11 0 1.31094e-27 0 2.30655e-19 0 0 
1251.88 1.84499e-13 0 0 0 0 0 7.35411e-11 1.91879e-11 1.91879e-11 0 1.31094e-27 0 2.3097e-19 0 0 
1253.58 1.84499e-13 0 0 0 0 0 7.35411e-11 1.91879e-11 1.91879e-11 0 1.31094e-27 0 2.31283e-19 0 0 
1255.26 1.84499e-13 0 0 0 0 0 7.35411e-11 1.91879e-11 1.91879e-11 0 1.31094e-27 0 2.31594e-19 0 0 
1256.94 1.84499e-13 0 0 0 0 0 7.35411e-11 1.91879e-11 1.91879e-11 0 1.31094e-27 0 2.31903e-19 0 0 
1258.6 1.84499e-13 0 0 0 0 0 7.35411e-11 1.91879e-11 1.91879e-11 0 1.31094e-27 0 2.3221e-19 0 0 
1260.25 1.84499e-13 0 0 0 0 0 7.35411e-11 1.91879e-11 1.91879e-11 0 1.31094e-27 0 2.32514e-19 0 0 
1261.89 1.84499e-13 0 0 0 0 0 7.35411e-11 1.91879e-11 1.91879e-11 0 1.31094e-27 0 2.32817e-19 0 0 
1263.52 1.84499e-13 0 0 0 0 0 7.35411e-11 1.91879e-11 1.91879e-11 0 1.31094e-27 0 2.33118e-19 0 0 
1265.14 1.84499e-13 0 0 0 0 0 7.35411e-11 1.91879e-11 1.91879e-11 0 1.31094e-27 0 2.33417e-19 0 0 
1266.75 1.84499e-13 0 0 0 0 0 7.35411e-11 1.91879e-11 1.91879e-11 0 1.31094e-27 0 2.33713e-19 0 0 
1268.35 1.84499e-13 0 0 0 0 0 7.35411e-11 1.91879e-11 1.91879e-11 0 1.31094e-27 0 2.34008e-19 0 0 
1269.93 1.84499e-13 0 0 0 0 0 7.35411e-11 1.91879e-11 1.91879e-11 0 1.31094e-27 0 2.34301e-19 0 0 
1271.51 1.84499e-13 0 0 0 0 0 7.35411e-11 1.91879e-11 1.91879e-11 0 1.31094e-27 0 2.34592e-19 0 0 
1273.08 1.84499e-13 0 0 0 0 0 7.35411e-11 1.91879e-11 1.91879e-11 0 1.31094e-27 0 2.34881e-19 0 0 
1274.63 1.84499e-13 0 0 0 0 0 7.35411e-11 1.91879e-11 1.91879e-11 0 1.31094e-27 0 2.35168e-19 0 0 
1276.18 1.84499e-13 0 0 0 0 0 7.35411e-11 1.91879e-11 1.91879e-11 0 1.31094e-27 0 2.35453e-19 0 0 
1277.71 1.84499e-13 0 0 0 0 0 7.35411e-11 1.91879e-11 1.91879e-11 0 1.31094e-27 0 2.35736e-19 0 0 
1279.24 1.84499e-13 0 0 0 0 0 7.35411e-11 1.91879e-11 1.91879e-11 0 1.31094e-27 0 2.36018e-19 0 0 
1280.75 1.84499e-13 0 0 0 0 0 7.35411e-11 1.91879e-11 1.91879e-11 0 1.31094e-27 0 2.36297e-19 0 0 
1282.26 1.84499e-13 0 0 0 0 0 7.35411e-11 1.91879e-11 1.91879e-11 0 1.31094e-27 0 2.36575e-19 0 0 
1283.75 1.84499e-13 0 0 0 0 0 7.35411e-11 1.91879e-11 1.91879e-11 0 1.31094e-27 0 2.36851e-19 0 0 
1285.24 1.84499e-13 0 0 0 0 0 7.35411e-11 1.91879e-11 1.91879e-11 0 1.31094e-27 0 2.37125e-19 0 0 
1286.71 1.84499e-13 0 0 0 0 0 7.35411e-11 1.91879e-11 1.91879e-11 0 1.31094e-27 0 2.37397e-19 0 0 
1288.18 1.84499e-13 0 0 0 0 0 7.35411e-11 1.91879e-11 1.91879e-11 0 1.31094e-27 0 2.37667e-19 0 0 
1289.64 1.84499e-13 0 0 0 0 0 7.35411e-11 1.91879e-11 1.91879e-11 0 1.31094e-27 0 2.37936e-19 0 0 
1291.08 1.84499e-13 0 0 0 0 0 7.35411e-11 1.91879e-11 1.91879e-11 0 1.31094e-27 0 2.38203e-19 0 0 
1292.52 1.84499e-13 0 0 0 0 0 7.35411e-11 1.91879e-11 1.91879e-11 0 1.31094e-27 0 2.38468e-19 0 0 
1293.95 1.84499e-13 0 0 0 0 0 7.35411e-11 1.91879e-11 1.91879e-11 0 1.31094e-27 0 2.38731e-19 0 0 
1295.36 1.84499e-13 0 0 0 0 0 7.35411e-11 1.91879e-11 1.91879e-11 0 1.31094e-27 0 2.38993e-19 0 0 
1296.77 1.84499e-13 0 0 0 0 0 7.35411e-11 1.91879e-11 1.91879e-11 0 1.31094e-27 0 2.39253e-19 0 0 
1298.17 1.84499e-13 0 0 0 0 0 7.35411e-11 1.91879e-11 1.91879e-11 0 1.31094e-27 0 2.39511e-19 0 0 
1299.56 1.84499e-13 0 0 0 0 0 7.35411e-11 1.91879e-11 1.91879e-11 0 1.31094e-27 0 2.39767e-19 0 0 
1300.94 1.84499e-13 0 0 0 0 0 7.35411e-11 1.91879e-11 1.91879e-11 0 1.31094e-27 0 2.40022e-19 0 0 
1302.31 1.84499e-13 0 0 0 0 0 7.35411e-11 1.91879e-11 1.91879e-11 0 1.31094e-27 0 2.40275e-19 0 0 
1303.68 1.84499e-13 0 0 0 0 0 7.35411e-11 1.91879e-11 1.91879e-11 0 1.31094e-27 0 2.40526e-19 0 0 
1305.03 1.84499e-13 0 0 0 0 0 7.35411e-11 1.91879e-11 1.91879e-11 0 1.31094e-27 0 2.40776e-19 0 0 
1306.37 1.84499e-13 0 0 0 0 0 7.35411e-11 1.91879e-11 1.91879e-11 0 1.31094e-27 0 2.41024e-19 0 0 
1307.71 1.84499e-13 0 0 0 0 0 7.35411e-11 1.91879e-11 1.91879e-11 0 1.31094e-27 0 2.41271e-19 0 0 
1309.04 1.84499e-13 0 0 0 0 0 7.35411e-11 1.91879e-11 1.91879e-11 0 1.31094e-27 0 2.41515e-19 0 0 
1310.35 1.84499e-13 0 0 0 0 0 7.35411e-11 1.91879e-11 1.91879e-11 0 1.31094e-27 0 2.41759e-19 0 0 
1311.66 1.84499e-13 0 0 0 0 0 7.35411e-11 1.91879e-11 1.91879e-11 0 1.31094e-27 0 2.42e-19 0 0 
1312.96 1.84499e-13 0 0 0 0 0 7.35411e-11 1.91879e-11 1.91879e-11 0 1.31094e-27 0 2.4224e-19 0 0 
1314.26 1.84499e-13 0 0 0 0 0 7.35411e-11 1.91879e-11 1.91879e-11 0 1.31094e-27 0 2.42478e-19 0 0 
1315.54 1.84499e-13 0 0 0 0 0 7.35411e-11 1.91879e-11 1.91879e-11 0 1.31094e-27 0 2.42715e-19 0 0 
1316.81 1.84499e-13 0 0 0 0 0 7.35411e-11 1.91879e-11 1.91879e-11 0 1.31094e-27 0 2.4295e-19 0 0 
1318.08 1.84499e-13 0 0 0 0 0 7.35411e-11 1.91879e-11 1.91879e-11 0 1.31094e-27 0 2.43184e-19 0 0 
1319.34 1.84499e-13 0 0 0 0 0 7.35411e-11 1.91879e-11 1.91879e-11 0 1.31094e-27 0 2.43416e-19 0 0 
1320.59 1.84499e-13 0 0 0 0 0 7.35411e-11 1.91879e-11 1.91879e-11 0 1.31094e-27 0 2.43647e-19 0 0 
1321.83 1.84499e-13 0 0 0 0 0 7.35411e-11 1.91879e-11 1.91879e-11 0 1.31094e-27 0 2.43876e-19 0 0 
1323.06 1.84499e-13 0 0 0 0 0 7.35411e-11 1.91879e-11 1.91879e-11 0 1.31094e-27 0 2.44104e-19 0 0 
1324.29 1.84499e-13 0 0 0 0 0 7.35411e-11 1.91879e-11 1.91879e-11 0 1.31094e-27 0 2.4433e-19 0 0 
1325.51 1.84499e-13 0 0 0 0 0 7.35411e-11 1.91879e-11 1.91879e-11 0 1.31094e-27 0 2.44554e-19 0 0 
1326.72 1.84499e-13 0 0 0 0 0 7.35411e-11 1.91879e-11 1.91879e-11 0 1.31094e-27 0 2.44777e-19 0 0 
1327.92 1.84499e-13 0 0 0 0 0 7.35411e-11 1.91879e-11 1.91879e-11 0 1.31094e-27 0 2.44999e-19 0 0 
1329.11 1.84499e-13 0 0 0 0 0 7.35411e-11 1.91879e-11 1.91879e-11 0 1.31094e-27 0 2.45219e-19 0 0 
1330.3 1.84499e-13 0 0 0 0 0 7.35411e-11 1.91879e-11 1.91879e-11 0 1.31094e-27 0 2.45438e-19 0 0 
1331.47 1.84499e-13 0 0 0 0 0 7.35411e-11 1.91879e-11 1.91879e-11 0 1.31094e-27 0 2.45655e-19 0 0 
1332.64 1.84499e-13 0 0 0 0 0 7.35411e-11 1.91879e-11 1.91879e-11 0 1.31094e-27 0 2.45871e-19 0 0 
1333.8 1.84499e-13 0 0 0 0 0 7.35411e-11 1.91879e-11 1.91879e-11 0 1.31094e-27 0 2.46085e-19 0 0 
1334.96 1.84499e-13 0 0 0 0 0 7.35411e-11 1.91879e-11 1.91879e-11 0 1.31094e-27 0 2.46298e-19 0 0 
1336.1 1.84499e-13 0 0 0 0 0 7.35411e-11 1.91879e-11 1.91879e-11 0 1.31094e-27 0 2.46509e-19 0 0 
1337.24 1.84499e-13 0 0 0 0 0 7.35411e-11 1.91879e-11 1.91879e-11 0 1.31094e-27 0 2.4672e-19 0 0 
1338.38 1.84499e-13 0 0 0 0 0 7.35411e-11 1.91879e-11 1.91879e-11 0 1.31094e-27 0 2.46928e-19 0 0 
1339.5 1.84499e-13 0 0 0 0 0 7.35411e-11 1.91879e-11 1.91879e-11 0 1.31094e-27 0 2.47136e-19 0 0 
1340.62 1.84499e-13 0 0 0 0 0 7.35411e-11 1.91879e-11 1.91879e-11 0 1.31094e-27 0 2.47342e-19 0 0 
1341.72 1.84499e-13 0 0 0 0 0 7.35411e-11 1.91879e-11 1.91879e-11 0 1.31094e-27 0 2.47546e-19 0 0 
1342.83 1.84499e-13 0 0 0 0 0 7.35411e-11 1.91879e-11 1.91879e-11 0 1.31094e-27 0 2.4775e-19 0 0 
1343.92 1.84499e-13 0 0 0 0 0 7.35411e-11 1.91879e-11 1.91879e-11 0 1.31094e-27 0 2.47952e-19 0 0 
1345.01 1.84499e-13 0 0 0 0 0 7.35411e-11 1.91879e-11 1.91879e-11 0 1.31094e-27 0 2.48152e-19 0 0 
1346.09 1.84499e-13 0 0 0 0 0 7.35411e-11 1.91879e-11 1.91879e-11 0 1.31094e-27 0 2.48351e-19 0 0 
1347.16 1.84499e-13 0 0 0 0 0 7.35411e-11 1.91879e-11 1.91879e-11 0 1.31094e-27 0 2.48549e-19 0 0 
1348.23 1.84499e-13 0 0 0 0 0 7.35411e-11 1.91879e-11 1.91879e-11 0 1.31094e-27 0 2.48746e-19 0 0 
1349.29 1.84499e-13 0 0 0 0 0 7.35411e-11 1.91879e-11 1.91879e-11 0 1.31094e-27 0 2.48941e-19 0 0 
1350.34 1.84499e-13 0 0 0 0 0 7.35411e-11 1.91879e-11 1.91879e-11 0 1.31094e-27 0 2.49135e-19 0 0 
1351.38 1.84499e-13 0 0 0 0 0 7.35411e-11 1.91879e-11 1.91879e-11 0 1.31094e-27 0 2.49328e-19 0 0 
1352.42 1.84499e-13 0 0 0 0 0 7.35411e-11 1.91879e-11 1.91879e-11 0 1.31094e-27 0 2.4952e-19 0 0 
1353.45 1.84499e-13 0 0 0 0 0 7.35411e-11 1.91879e-11 1.91879e-11 0 1.31094e-27 0 2.4971e-19 0 0 
1354.48 1.84499e-13 0 0 0 0 0 7.35411e-11 1.91879e-11 1.91879e-11 0 1.31094e-27 0 2.49899e-19 0 0 
1355.49 1.84499e-13 0 0 0 0 0 7.35411e-11 1.91879e-11 1.91879e-11 0 1.31094e-27 0 2.50087e-19 0 0 
1356.5 1.84499e-13 0 0 0 0 0 7.35411e-11 1.91879e-11 1.91879e-11 0 1.31094e-27 0 2.50273e-19 0 0 
1357.51 1.84499e-13 0 0 0 0 0 7.35411e-11 1.91879e-11 1.91879e-11 0 1.31094e-27 0 2.50458e-19 0 0 
1358.51 1.84499e-13 0 0 0 0 0 7.35411e-11 1.91879e-11 1.91879e-11 0 1.31094e-27 0 2.50642e-19 0 0 
1359.5 1.84499e-13 0 0 0 0 0 7.35411e-11 1.91879e-11 1.91879e-11 0 1.31094e-27 0 2.50825e-19 0 0 
1360.48 1.84499e-13 0 0 0 0 0 7.35411e-11 1.91879e-11 1.91879e-11 0 1.31094e-27 0 2.51007e-19 0 0 
1361.46 1.84499e-13 0 0 0 0 0 7.35411e-11 1.91879e-11 1.91879e-11 0 1.31094e-27 0 2.51187e-19 0 0 
1362.43 1.84499e-13 0 0 0 0 0 7.35411e-11 1.91879e-11 1.91879e-11 0 1.31094e-27 0 2.51366e-19 0 0 
1363.39 1.84499e-13 0 0 0 0 0 7.35411e-11 1.91879e-11 1.91879e-11 0 1.31094e-27 0 2.51544e-19 0 0 
1364.35 1.84499e-13 0 0 0 0 0 7.35411e-11 1.91879e-11 1.91879e-11 0 1.31094e-27 0 2.51721e-19 0 0 
1365.3 1.84499e-13 0 0 0 0 0 7.35411e-11 1.91879e-11 1.91879e-11 0 1.31094e-27 0 2.51897e-19 0 0 
1366.25 1.84499e-13 0 0 0 0 0 7.35411e-11 1.91879e-11 1.91879e-11 0 1.31094e-27 0 2.52071e-19 0 0 
1367.19 1.84499e-13 0 0 0 0 0 7.35411e-11 1.91879e-11 1.91879e-11 0 1.31094e-27 0 2.52245e-19 0 0 
1368.12 1.84499e-13 0 0 0 0 0 7.35411e-11 1.91879e-11 1.91879e-11 0 1.31094e-27 0 2.52417e-19 0 0 
1369.05 1.84499e-13 0 0 0 0 0 7.35411e-11 1.91879e-11 1.91879e-11 0 1.31094e-27 0 2.52588e-19 0 0 
1369.97 1.84499e-13 0 0 0 0 0 7.35411e-11 1.91879e-11 1.91879e-11 0 1.31094e-27 0 2.52758e-19 0 0 
1370.89 1.84499e-13 0 0 0 0 0 7.35411e-11 1.91879e-11 1.91879e-11 0 1.31094e-27 0 2.52927e-19 0 0 
1371.8 1.84499e-13 0 0 0 0 0 7.35411e-11 1.91879e-11 1.91879e-11 0 1.31094e-27 0 2.53094e-19 0 0 
1372.7 1.84499e-13 0 0 0 0 0 7.35411e-11 1.91879e-11 1.91879e-11 0 1.31094e-27 0 2.53261e-19 0 0 
1373.6 1.84499e-13 0 0 0 0 0 7.35411e-11 1.91879e-11 1.91879e-11 0 1.31094e-27 0 2.53426e-19 0 0 
1374.49 1.84499e-13 0 0 0 0 0 7.35411e-11 1.91879e-11 1.91879e-11 0 1.31094e-27 0 2.53591e-19 0 0 
1375.37 1.84499e-13 0 0 0 0 0 7.35411e-11 1.91879e-11 1.91879e-11 0 1.31094e-27 0 2.53754e-19 0 0 
1376.25 1.84499e-13 0 0 0 0 0 7.35411e-11 1.91879e-11 1.91879e-11 0 1.31094e-27 0 2.53916e-19 0 0 
1377.12 1.84499e-13 0 0 0 0 0 7.35411e-11 1.91879e-11 1.91879e-11 0 1.31094e-27 0 2.54077e-19 0 0 
1377.99 1.84499e-13 0 0 0 0 0 7.35411e-11 1.91879e-11 1.91879e-11 0 1.31094e-27 0 2.54238e-19 0 0 
1378.85 1.84499e-13 0 0 0 0 0 7.35411e-11 1.91879e-11 1.91879e-11 0 1.31094e-27 0 2.54397e-19 0 0 
1379.71 1.84499e-13 0 0 0 0 0 7.35411e-11 1.91879e-11 1.91879e-11 0 1.31094e-27 0 2.54554e-19 0 0 
1380.56 1.84499e-13 0 0 0 0 0 7.35411e-11 1.91879e-11 1.91879e-11 0 1.31094e-27 0 2.54711e-19 0 0 
1381.41 1.84499e-13 0 0 0 0 0 7.35411e-11 1.91879e-11 1.91879e-11 0 1.31094e-27 0 2.54867e-19 0 0 
1382.24 1.84499e-13 0 0 0 0 0 7.35411e-11 1.91879e-11 1.91879e-11 0 1.31094e-27 0 2.55022e-19 0 0 
1383.08 1.84499e-13 0 0 0 0 0 7.35411e-11 1.91879e-11 1.91879e-11 0 1.31094e-27 0 2.55176e-19 0 0 
1383.91 1.84499e-13 0 0 0 0 0 7.35411e-11 1.91879e-11 1.91879e-11 0 1.31094e-27 0 2.55329e-19 0 0 
1384.73 1.84499e-13 0 0 0 0 0 7.35411e-11 1.91879e-11 1.91879e-11 0 1.31094e-27 0 2.55481e-19 0 0 
1385.55 1.84499e-13 0 0 0 0 0 7.35411e-11 1.91879e-11 1.91879e-11 0 1.31094e-27 0 2.55631e-19 0 0 
1386.36 1.84499e-13 0 0 0 0 0 7.35411e-11 1.91879e-11 1.91879e-11 0 1.31094e-27 0 2.55781e-19 0 0 
1387.16 1.84499e-13 0 0 0 0 0 7.35411e-11 1.91879e-11 1.91879e-11 0 1.31094e-27 0 2.5593e-19 0 0 
1387.97 1.84499e-13 0 0 0 0 0 7.35411e-11 1.91879e-11 1.91879e-11 0 1.31094e-27 0 2.56078e-19 0 0 
1388.76 1.84499e-13 0 0 0 0 0 7.35411e-11 1.91879e-11 1.91879e-11 0 1.31094e-27 0 2.56225e-19 0 0 
1389.55 1.84499e-13 0 0 0 0 0 7.35411e-11 1.91879e-11 1.91879e-11 0 1.31094e-27 0 2.56371e-19 0 0 
1390.34 1.84499e-13 0 0 0 0 0 7.35411e-11 1.91879e-11 1.91879e-11 0 1.31094e-27 0 2.56515e-19 0 0 
1391.12 1.84499e-13 0 0 0 0 0 7.35411e-11 1.91879e-11 1.91879e-11 0 1.31094e-27 0 2.56659e-19 0 0 
1391.89 1.84499e-13 0 0 0 0 0 7.35411e-11 1.91879e-11 1.91879e-11 0 1.31094e-27 0 2.56802e-19 0 0 
1392.66 1.84499e-13 0 0 0 0 0 7.35411e-11 1.91879e-11 1.91879e-11 0 1.31094e-27 0 2.56944e-19 0 0 
1393.43 1.84499e-13 0 0 0 0 0 7.35411e-11 1.91879e-11 1.91879e-11 0 1.31094e-27 0 2.57086e-19 0 0 
1394.19 1.84499e-13 0 0 0 0 0 7.35411e-11 1.91879e-11 1.91879e-11 0 1.31094e-27 0 2.57226e-19 0 0 
1394.94 1.84499e-13 0 0 0 0 0 7.35411e-11 1.91879e-11 1.91879e-11 0 1.31094e-27 0 2.57365e-19 0 0 
1395.69 1.84499e-13 0 0 0 0 0 7.35411e-11 1.91879e-11 1.91879e-11 0 1.31094e-27 0 2.57503e-19 0 0 
1396.44 1.84499e-13 0 0 0 0 0 7.35411e-11 1.91879e-11 1.91879e-11 0 1.31094e-27 0 2.57641e-19 0 0 
1397.18 1.84499e-13 0 0 0 0 0 7.35411e-11 1.91879e-11 1.91879e-11 0 1.31094e-27 0 2.57777e-19 0 0 
1397.91 1.84499e-13 0 0 0 0 0 7.35411e-11 1.91879e-11 1.91879e-11 0 1.31094e-27 0 2.57913e-19 0 0 
1398.64 1.84499e-13 0 0 0 0 0 7.35411e-11 1.91879e-11 1.91879e-11 0 1.31094e-27 0 2.58048e-19 0 0 
1399.37 1.84499e-13 0 0 0 0 0 7.35411e-11 1.91879e-11 1.91879e-11 0 1.31094e-27 0 2.58181e-19 0 0 
1400.09 1.84499e-13 0 0 0 0 0 7.35411e-11 1.91879e-11 1.91879e-11 0 1.31094e-27 0 2.58314e-19 0 0 
1400.8 1.84499e-13 0 0 0 0 0 7.35411e-11 1.91879e-11 1.91879e-11 0 1.31094e-27 0 2.58446e-19 0 0 
1401.51 1.84499e-13 0 0 0 0 0 7.35411e-11 1.91879e-11 1.91879e-11 0 1.31094e-27 0 2.58578e-19 0 0 
1402.22 1.84499e-13 0 0 0 0 0 7.35411e-11 1.91879e-11 1.91879e-11 0 1.31094e-27 0 2.58708e-19 0 0 
1402.92 1.84499e-13 0 0 0 0 0 7.35411e-11 1.91879e-11 1.91879e-11 0 1.31094e-27 0 2.58837e-19 0 0 
1403.62 1.84499e-13 0 0 0 0 0 7.35411e-11 1.91879e-11 1.91879e-11 0 1.31094e-27 0 2.58966e-19 0 0 
1404.31 1.84499e-13 0 0 0 0 0 7.35411e-11 1.91879e-11 1.91879e-11 0 1.31094e-27 0 2.59094e-19 0 0 
1405 1.84499e-13 0 0 0 0 0 7.35411e-11 1.91879e-11 1.91879e-11 0 1.31094e-27 0 2.59221e-19 0 0 
1405.68 1.84499e-13 0 0 0 0 0 7.35411e-11 1.91879e-11 1.91879e-11 0 1.31094e-27 0 2.59347e-19 0 0 
1406.36 1.84499e-13 0 0 0 0 0 7.35411e-11 1.91879e-11 1.91879e-11 0 1.31094e-27 0 2.59472e-19 0 0 
1407.04 1.84499e-13 0 0 0 0 0 7.35411e-11 1.91879e-11 1.91879e-11 0 1.31094e-27 0 2.59596e-19 0 0 
1407.71 1.84499e-13 0 0 0 0 0 7.35411e-11 1.91879e-11 1.91879e-11 0 1.31094e-27 0 2.5972e-19 0 0 
1408.37 1.84499e-13 0 0 0 0 0 7.35411e-11 1.91879e-11 1.91879e-11 0 1.31094e-27 0 2.59843e-19 0 0 
1409.03 1.84499e-13 0 0 0 0 0 7.35411e-11 1.91879e-11 1.91879e-11 0 1.31094e-27 0 2.59965e-19 0 0 
1409.69 1.84499e-13 0 0 0 0 0 7.35411e-11 1.91879e-11 1.91879e-11 0 1.31094e-27 0 2.60086e-19 0 0 
1410.34 1.84499e-13 0 0 0 0 0 7.35411e-11 1.91879e-11 1.91879e-11 0 1.31094e-27 0 2.60206e-19 0 0 
1410.99 1.84499e-13 0 0 0 0 0 7.35411e-11 1.91879e-11 1.91879e-11 0 1.31094e-27 0 2.60326e-19 0 0 
1411.63 1.84499e-13 0 0 0 0 0 7.35411e-11 1.91879e-11 1.91879e-11 0 1.31094e-27 0 2.60444e-19 0 0 
1412.27 1.84499e-13 0 0 0 0 0 7.35411e-11 1.91879e-11 1.91879e-11 0 1.31094e-27 0 2.60562e-19 0 0 
1412.91 1.84499e-13 0 0 0 0 0 7.35411e-11 1.91879e-11 1.91879e-11 0 1.31094e-27 0 2.60679e-19 0 0 
1413.54 1.84499e-13 0 0 0 0 0 7.35411e-11 1.91879e-11 1.91879e-11 0 1.31094e-27 0 2.60796e-19 0 0 
1414.17 1.84499e-13 0 0 0 0 0 7.35411e-11 1.91879e-11 1.91879e-11 0 1.31094e-27 0 2.60911e-19 0 0 
1414.79 1.84499e-13 0 0 0 0 0 7.35411e-11 1.91879e-11 1.91879e-11 0 1.31094e-27 0 2.61026e-19 0 0 
1415.41 1.84499e-13 0 0 0 0 0 7.35411e-11 1.91879e-11 1.91879e-11 0 1.31094e-27 0 2.6114e-19 0 0 
1416.02 1.84499e-13 0 0 0 0 0 7.35411e-11 1.91879e-11 1.91879e-11 0 1.31094e-27 0 2.61254e-19 0 0 
1416.63 1.84499e-13 0 0 0 0 0 7.35411e-11 1.91879e-11 1.91879e-11 0 1.31094e-27 0 2.61366e-19 0 0 
1417.24 1.84499e-13 0 0 0 0 0 7.35411e-11 1.91879e-11 1.91879e-11 0 1.31094e-27 0 2.61478e-19 0 0 
1417.84 1.84499e-13 0 0 0 0 0 7.35411e-11 1.91879e-11 1.91879e-11 0 1.31094e-27 0 2.61589e-19 0 0 
1418.44 1.84499e-13 0 0 0 0 0 7.35411e-11 1.91879e-11 1.91879e-11 0 1.31094e-27 0 2.617e-19 0 0 
1419.03 1.84499e-13 0 0 0 0 0 7.35411e-11 1.91879e-11 1.91879e-11 0 1.31094e-27 0 2.61809e-19 0 0 
1419.62 1.84499e-13 0 0 0 0 0 7.35411e-11 1.91879e-11 1.91879e-11 0 1.31094e-27 0 2.61918e-19 0 0 
1420.21 1.84499e-13 0 0 0 0 0 7.35411e-11 1.91879e-11 1.91879e-11 0 1.31094e-27 0 2.62027e-19 0 0 
1420.79 1.84499e-13 0 0 0 0 0 7.35411e-11 1.91879e-11 1.91879e-11 0 1.31094e-27 0 2.62134e-19 0 0 
1421.37 1.84499e-13 0 0 0 0 0 7.35411e-11 1.91879e-11 1.91879e-11 0 1.31094e-27 0 2.62241e-19 0 0 
1421.95 1.84499e-13 0 0 0 0 0 7.35411e-11 1.91879e-11 1.91879e-11 0 1.31094e-27 0 2.62347e-19 0 0 
1422.52 1.84499e-13 0 0 0 0 0 7.35411e-11 1.91879e-11 1.91879e-11 0 1.31094e-27 0 2.62452e-19 0 0 
1423.08 1.84499e-13 0 0 0 0 0 7.35411e-11 1.91879e-11 1.91879e-11 0 1.31094e-27 0 2.62557e-19 0 0 
1423.65 1.84499e-13 0 0 0 0 0 7.35411e-11 1.91879e-11 1.91879e-11 0 1.31094e-27 0 2.62661e-19 0 0 
1424.21 1.84499e-13 0 0 0 0 0 7.35411e-11 1.91879e-11 1.91879e-11 0 1.31094e-27 0 2.62764e-19 0 0 
1424.76 1.84499e-13 0 0 0 0 0 7.35411e-11 1.91879e-11 1.91879e-11 0 1.31094e-27 0 2.62867e-19 0 0 
1425.32 1.84499e-13 0 0 0 0 0 7.35411e-11 1.91879e-11 1.91879e-11 0 1.31094e-27 0 2.62969e-19 0 0 
1425.87 1.84499e-13 0 0 0 0 0 7.35411e-11 1.91879e-11 1.91879e-11 0 1.31094e-27 0 2.6307e-19 0 0 
1426.41 1.84499e-13 0 0 0 0 0 7.35411e-11 1.91879e-11 1.91879e-11 0 1.31094e-27 0 2.63171e-19 0 0 
1426.95 1.84499e-13 0 0 0 0 0 7.35411e-11 1.91879e-11 1.91879e-11 0 1.31094e-27 0 2.63271e-19 0 0 
1427.49 1.84499e-13 0 0 0 0 0 7.35411e-11 1.91879e-11 1.91879e-11 0 1.31094e-27 0 2.6337e-19 0 0 
1428.02 1.84499e-13 0 0 0 0 0 7.35411e-11 1.91879e-11 1.91879e-11 0 1.31094e-27 0 2.63469e-19 0 0 
1428.56 1.84499e-13 0 0 0 0 0 7.35411e-11 1.91879e-11 1.91879e-11 0 1.31094e-27 0 2.63567e-19 0 0 
1429.08 1.84499e-13 0 0 0 0 0 7.35411e-11 1.91879e-11 1.91879e-11 0 1.31094e-27 0 2.63664e-19 0 0 
1429.61 1.84499e-13 0 0 0 0 0 7.35411e-11 1.91879e-11 1.91879e-11 0 1.31094e-27 0 2.6376e-19 0 0 
1430.13 1.84499e-13 0 0 0 0 0 7.35411e-11 1.91879e-11 1.91879e-11 0 1.31094e-27 0 2.63857e-19 0 0 
1430.64 1.84499e-13 0 0 0 0 0 7.35411e-11 1.91879e-11 1.91879e-11 0 1.31094e-27 0 2.63952e-19 0 0 
1431.16 1.84499e-13 0 0 0 0 0 7.35411e-11 1.91879e-11 1.91879e-11 0 1.31094e-27 0 2.64047e-19 0 0 
1431.67 1.84499e-13 0 0 0 0 0 7.35411e-11 1.91879e-11 1.91879e-11 0 1.31094e-27 0 2.64141e-19 0 0 
1432.18 1.84499e-13 0 0 0 0 0 7.35411e-11 1.91879e-11 1.91879e-11 0 1.31094e-27 0 2.64234e-19 0 0 
1432.68 1.84499e-13 0 0 0 0 0 7.35411e-11 1.91879e-11 1.91879e-11 0 1.31094e-27 0 2.64327e-19 0 0 
1433.18 1.84499e-13 0 0 0 0 0 7.35411e-11 1.91879e-11 1.91879e-11 0 1.31094e-27 0 2.6442e-19 0 0 
1433.68 1.84499e-13 0 0 0 0 0 7.35411e-11 1.91879e-11 1.91879e-11 0 1.31094e-27 0 2.64511e-19 0 0 
1434.17 1.84499e-13 0 0 0 0 0 7.35411e-11 1.91879e-11 1.91879e-11 0 1.31094e-27 0 2.64602e-19 0 0 
1434.66 1.84499e-13 0 0 0 0 0 7.35411e-11 1.91879e-11 1.91879e-11 0 1.31094e-27 0 2.64693e-19 0 0 
1435.15 1.84499e-13 0 0 0 0 0 7.35411e-11 1.91879e-11 1.91879e-11 0 1.31094e-27 0 2.64783e-19 0 0 
1435.63 1.84499e-13 0 0 0 0 0 7.35411e-11 1.91879e-11 1.91879e-11 0 1.31094e-27 0 2.64872e-19 0 0 
1436.11 1.84499e-13 0 0 0 0 0 7.35411e-11 1.91879e-11 1.91879e-11 0 1.31094e-27 0 2.64961e-19 0 0 
1436.59 1.84499e-13 0 0 0 0 0 7.35411e-11 1.91879e-11 1.91879e-11 0 1.31094e-27 0 2.65049e-19 0 0 
1437.06 1.84499e-13 0 0 0 0 0 7.35411e-11 1.91879e-11 1.91879e-11 0 1.31094e-27 0 2.65136e-19 0 0 
1437.53 1.84499e-13 0 0 0 0 0 7.35411e-11 1.91879e-11 1.91879e-11 0 1.31094e-27 0 2.65223e-19 0 0 
1438 1.84499e-13 0 0 0 0 0 7.35411e-11 1.91879e-11 1.91879e-11 0 1.31094e-27 0 2.65309e-19 0 0 
1438.47 1.84499e-13 0 0 0 0 0 7.35411e-11 1.91879e-11 1.91879e-11 0 1.31094e-27 0 2.65395e-19 0 0 
1438.93 1.84499e-13 0 0 0 0 0 7.35411e-11 1.91879e-11 1.91879e-11 0 1.31094e-27 0 2.6548e-19 0 0 
1439.39 1.84499e-13 0 0 0 0 0 7.35411e-11 1.91879e-11 1.91879e-11 0 1.31094e-27 0 2.65565e-19 0 0 
1439.84 1.84499e-13 0 0 0 0 0 7.35411e-11 1.91879e-11 1.91879e-11 0 1.31094e-27 0 2.65649e-19 0 0 
1440.3 1.84499e-13 0 0 0 0 0 7.35411e-11 1.91879e-11 1.91879e-11 0 1.31094e-27 0 2.65733e-19 0 0 
1440.75 1.84499e-13 0 0 0 0 0 7.35411e-11 1.91879e-11 1.91879e-11 0 1.31094e-27 0 2.65816e-19 0 0 
1441.19 1.84499e-13 0 0 0 0 0 7.35411e-11 1.91879e-11 1.91879e-11 0 1.31094e-27 0 2.65898e-19 0 0 
1441.64 1.84499e-13 0 0 0 0 0 7.35411e-11 1.91879e-11 1.91879e-11 0 1.31094e-27 0 2.6598e-19 0 0 
1442.08 1.84499e-13 0 0 0 0 0 7.35411e-11 1.91879e-11 1.91879e-11 0 1.31094e-27 0 2.66061e-19 0 0 
1442.52 1.84499e-13 0 0 0 0 0 7.35411e-11 1.91879e-11 1.91879e-11 0 1.31094e-27 0 2.66142e-19 0 0 
1442.95 1.84499e-13 0 0 0 0 0 7.35411e-11 1.91879e-11 1.91879e-11 0 1.31094e-27 0 2.66222e-19 0 0 
1443.38 1.84499e-13 0 0 0 0 0 7.35411e-11 1.91879e-11 1.91879e-11 0 1.31094e-27 0 2.66302e-19 0 0 
1443.81 1.84499e-13 0 0 0 0 0 7.35411e-11 1.91879e-11 1.91879e-11 0 1.31094e-27 0 2.66381e-19 0 0 
1444.24 1.84499e-13 0 0 0 0 0 7.35411e-11 1.91879e-11 1.91879e-11 0 1.31094e-27 0 2.6646e-19 0 0 
1444.66 1.84499e-13 0 0 0 0 0 7.35411e-11 1.91879e-11 1.91879e-11 0 1.31094e-27 0 2.66538e-19 0 0 
1445.08 1.84499e-13 0 0 0 0 0 7.35411e-11 1.91879e-11 1.91879e-11 0 1.31094e-27 0 2.66616e-19 0 0 
1445.5 1.84499e-13 0 0 0 0 0 7.35411e-11 1.91879e-11 1.91879e-11 0 1.31094e-27 0 2.66693e-19 0 0 
1445.92 1.84499e-13 0 0 0 0 0 7.35411e-11 1.91879e-11 1.91879e-11 0 1.31094e-27 0 2.6677e-19 0 0 
1446.33 1.84499e-13 0 0 0 0 0 7.35411e-11 1.91879e-11 1.91879e-11 0 1.31094e-27 0 2.66846e-19 0 0 
1446.74 1.84499e-13 0 0 0 0 0 7.35411e-11 1.91879e-11 1.91879e-11 0 1.31094e-27 0 2.66921e-19 0 0 
1447.15 1.84499e-13 0 0 0 0 0 7.35411e-11 1.91879e-11 1.91879e-11 0 1.31094e-27 0 2.66997e-19 0 0 
1447.55 1.84499e-13 0 0 0 0 0 7.35411e-11 1.91879e-11 1.91879e-11 0 1.31094e-27 0 2.67071e-19 0 0 
1447.95 1.84499e-13 0 0 0 0 0 7.35411e-11 1.91879e-11 1.91879e-11 0 1.31094e-27 0 2.67145e-19 0 0 
1448.35 1.84499e-13 0 0 0 0 0 7.35411e-11 1.91879e-11 1.91879e-11 0 1.31094e-27 0 2.67219e-19 0 0 
1448.75 1.84499e-13 0 0 0 0 0 7.35411e-11 1.91879e-11 1.91879e-11 0 1.31094e-27 0 2.67292e-19 0 0 
1449.14 1.84499e-13 0 0 0 0 0 7.35411e-11 1.91879e-11 1.91879e-11 0 1.31094e-27 0 2.67365e-19 0 0 
1449.53 1.84499e-13 0 0 0 0 0 7.35411e-11 1.91879e-11 1.91879e-11 0 1.31094e-27 0 2.67437e-19 0 0 
1449.92 1.84499e-13 0 0 0 0 0 7.35411e-11 1.91879e-11 1.91879e-11 0 1.31094e-27 0 2.67509e-19 0 0 
1450.31 1.84499e-13 0 0 0 0 0 7.35411e-11 1.91879e-11 1.91879e-11 0 1.31094e-27 0 2.6758e-19 0 0 
1450.69 1.84499e-13 0 0 0 0 0 7.35411e-11 1.91879e-11 1.91879e-11 0 1.31094e-27 0 2.67651e-19 0 0 
1451.07 1.84499e-13 0 0 0 0 0 7.35411e-11 1.91879e-11 1.91879e-11 0 1.31094e-27 0 2.67721e-19 0 0 
1451.45 1.84499e-13 0 0 0 0 0 7.35411e-11 1.91879e-11 1.91879e-11 0 1.31094e-27 0 2.67791e-19 0 0 
1451.83 1.84499e-13 0 0 0 0 0 7.35411e-11 1.91879e-11 1.91879e-11 0 1.31094e-27 0 2.6786e-19 0 0 
1452.2 1.84499e-13 0 0 0 0 0 7.35411e-11 1.91879e-11 1.91879e-11 0 1.31094e-27 0 2.67929e-19 0 0 
1452.57 1.84499e-13 0 0 0 0 0 7.35411e-11 1.91879e-11 1.91879e-11 0 1.31094e-27 0 2.67998e-19 0 0 
1452.94 1.84499e-13 0 0 0 0 0 7.35411e-11 1.91879e-11 1.91879e-11 0 1.31094e-27 0 2.68066e-19 0 0 
1453.31 1.84499e-13 0 0 0 0 0 7.35411e-11 1.91879e-11 1.91879e-11 0 1.31094e-27 0 2.68133e-19 0 0 
1453.67 1.84499e-13 0 0 0 0 0 7.35411e-11 1.91879e-11 1.91879e-11 0 1.31094e-27 0 2.682e-19 0 0 
1454.03 1.84499e-13 0 0 0 0 0 7.35411e-11 1.91879e-11 1.91879e-11 0 1.31094e-27 0 2.68267e-19 0 0 
1454.39 1.84499e-13 0 0 0 0 0 7.35411e-11 1.91879e-11 1.91879e-11 0 1.31094e-27 0 2.68333e-19 0 0 
1454.75 1.84499e-13 0 0 0 0 0 7.35411e-11 1.91879e-11 1.91879e-11 0 1.31094e-27 0 2.68399e-19 0 0 
1455.1 1.84499e-13 0 0 0 0 0 7.35411e-11 1.91879e-11 1.91879e-11 0 1.31094e-27 0 2.68464e-19 0 0 
1455.45 1.84499e-13 0 0 0 0 0 7.35411e-11 1.91879e-11 1.91879e-11 0 1.31094e-27 0 2.68529e-19 0 0 
1455.8 1.84499e-13 0 0 0 0 0 7.35411e-11 1.91879e-11 1.91879e-11 0 1.31094e-27 0 2.68594e-19 0 0 
1456.15 1.84499e-13 0 0 0 0 0 7.35411e-11 1.91879e-11 1.91879e-11 0 1.31094e-27 0 2.68658e-19 0 0 
1456.5 1.84499e-13 0 0 0 0 0 7.35411e-11 1.91879e-11 1.91879e-11 0 1.31094e-27 0 2.68721e-19 0 0 
1456.84 1.84499e-13 0 0 0 0 0 7.35411e-11 1.91879e-11 1.91879e-11 0 1.31094e-27 0 2.68785e-19 0 0 
1457.18 1.84499e-13 0 0 0 0 0 7.35411e-11 1.91879e-11 1.91879e-11 0 1.31094e-27 0 2.68847e-19 0 0 
1457.52 1.84499e-13 0 0 0 0 0 7.35411e-11 1.91879e-11 1.91879e-11 0 1.31094e-27 0 2.6891e-19 0 0 
1457.85 1.84499e-13 0 0 0 0 0 7.35411e-11 1.91879e-11 1.91879e-11 0 1.31094e-27 0 2.68972e-19 0 0 
1458.19 1.84499e-13 0 0 0 0 0 7.35411e-11 1.91879e-11 1.91879e-11 0 1.31094e-27 0 2.69033e-19 0 0 
1458.52 1.84499e-13 0 0 0 0 0 7.35411e-11 1.91879e-11 1.91879e-11 0 1.31094e-27 0 2.69094e-19 0 0 
1458.85 1.84499e-13 0 0 0 0 0 7.35411e-11 1.91879e-11 1.91879e-11 0 1.31094e-27 0 2.69155e-19 0 0 
1459.17 1.84499e-13 0 0 0 0 0 7.35411e-11 1.91879e-11 1.91879e-11 0 1.31094e-27 0 2.69215e-19 0 0 
1459.5 1.84499e-13 0 0 0 0 0 7.35411e-11 1.91879e-11 1.91879e-11 0 1.31094e-27 0 2.69275e-19 0 0 
1459.82 1.84499e-13 0 0 0 0 0 7.35411e-11 1.91879e-11 1.91879e-11 0 1.31094e-27 0 2.69335e-19 0 0 
1460.14 1.84499e-13 0 0 0 0 0 7.35411e-11 1.91879e-11 1.91879e-11 0 1.31094e-27 0 2.69394e-19 0 0 
1460.46 1.84499e-13 0 0 0 0 0 7.35411e-11 1.91879e-11 1.91879e-11 0 1.31094e-27 0 2.69453e-19 0 0 
1460.78 1.84499e-13 0 0 0 0 0 7.35411e-11 1.91879e-11 1.91879e-11 0 1.31094e-27 0 2.69511e-19 0 0 
1461.09 1.84499e-13 0 0 0 0 0 7.35411e-11 1.91879e-11 1.91879e-11 0 1.31094e-27 0 2.69569e-19 0 0 
1461.4 1.84499e-13 0 0 0 0 0 7.35411e-11 1.91879e-11 1.91879e-11 0 1.31094e-27 0 2.69627e-19 0 0 
1461.71 1.84499e-13 0 0 0 0 0 7.35411e-11 1.91879e-11 1.91879e-11 0 1.31094e-27 0 2.69684e-19 0 0 
1462.02 1.84499e-13 0 0 0 0 0 7.35411e-11 1.91879e-11 1.91879e-11 0 1.31094e-27 0 2.69741e-19 0 0 
1462.33 1.84499e-13 0 0 0 0 0 7.35411e-11 1.91879e-11 1.91879e-11 0 1.31094e-27 0 2.69797e-19 0 0 
1462.63 1.84499e-13 0 0 0 0 0 7.35411e-11 1.91879e-11 1.91879e-11 0 1.31094e-27 0 2.69854e-19 0 0 
1462.93 1.84499e-13 0 0 0 0 0 7.35411e-11 1.91879e-11 1.91879e-11 0 1.31094e-27 0 2.69909e-19 0 0 
1463.23 1.84499e-13 0 0 0 0 0 7.35411e-11 1.91879e-11 1.91879e-11 0 1.31094e-27 0 2.69965e-19 0 0 
1463.53 1.84499e-13 0 0 0 0 0 7.35411e-11 1.91879e-11 1.91879e-11 0 1.31094e-27 0 2.7002e-19 0 0 
1463.83 1.84499e-13 0 0 0 0 0 7.35411e-11 1.91879e-11 1.91879e-11 0 1.31094e-27 0 2.70074e-19 0 0 
1464.12 1.84499e-13 0 0 0 0 0 7.35411e-11 1.91879e-11 1.91879e-11 0 1.31094e-27 0 2.70128e-19 0 0 
1464.41 1.84499e-13 0 0 0 0 0 7.35411e-11 1.91879e-11 1.91879e-11 0 1.31094e-27 0 2.70182e-19 0 0 
1464.7 1.84499e-13 0 0 0 0 0 7.35411e-11 1.91879e-11 1.91879e-11 0 1.31094e-27 0 2.70236e-19 0 0 
1464.99 1.84499e-13 0 0 0 0 0 7.35411e-11 1.91879e-11 1.91879e-11 0 1.31094e-27 0 2.70289e-19 0 0 
1465.28 1.84499e-13 0 0 0 0 0 7.35411e-11 1.91879e-11 1.91879e-11 0 1.31094e-27 0 2.70342e-19 0 0 
1465.56 1.84499e-13 0 0 0 0 0 7.35411e-11 1.91879e-11 1.91879e-11 0 1.31094e-27 0 2.70394e-19 0 0 
1465.85 1.84499e-13 0 0 0 0 0 7.35411e-11 1.91879e-11 1.91879e-11 0 1.31094e-27 0 2.70447e-19 0 0 
1466.13 1.84499e-13 0 0 0 0 0 7.35411e-11 1.91879e-11 1.91879e-11 0 1.31094e-27 0 2.70498e-19 0 0 
1466.41 1.84499e-13 0 0 0 0 0 7.35411e-11 1.91879e-11 1.91879e-11 0 1.31094e-27 0 2.7055e-19 0 0 
1466.68 1.84499e-13 0 0 0 0 0 7.35411e-11 1.91879e-11 1.91879e-11 0 1.31094e-27 0 2.70601e-19 0 0 
1466.96 1.84499e-13 0 0 0 0 0 7.35411e-11 1.91879e-11 1.91879e-11 0 1.31094e-27 0 2.70652e-19 0 0 
1467.23 1.84499e-13 0 0 0 0 0 7.35411e-11 1.91879e-11 1.91879e-11 0 1.31094e-27 0 2.70702e-19 0 0 
1467.5 1.84499e-13 0 0 0 0 0 7.35411e-11 1.91879e-11 1.91879e-11 0 1.31094e-27 0 2.70752e-19 0 0 
1467.77 1.84499e-13 0 0 0 0 0 7.35411e-11 1.91879e-11 1.91879e-11 0 1.31094e-27 0 2.70802e-19 0 0 
1468.04 1.84499e-13 0 0 0 0 0 7.35411e-11 1.91879e-11 1.91879e-11 0 1.31094e-27 0 2.70852e-19 0 0 
1468.31 1.84499e-13 0 0 0 0 0 7.35411e-11 1.91879e-11 1.91879e-11 0 1.31094e-27 0 2.70901e-19 0 0 
1468.57 1.84499e-13 0 0 0 0 0 7.35411e-11 1.91879e-11 1.91879e-11 0 1.31094e-27 0 2.7095e-19 0 0 
1468.84 1.84499e-13 0 0 0 0 0 7.35411e-11 1.91879e-11 1.91879e-11 0 1.31094e-27 0 2.70998e-19 0 0 
1469.1 1.84499e-13 0 0 0 0 0 7.35411e-11 1.91879e-11 1.91879e-11 0 1.31094e-27 0 2.71046e-19 0 0 
1469.36 1.84499e-13 0 0 0 0 0 7.35411e-11 1.91879e-11 1.91879e-11 0 1.31094e-27 0 2.71094e-19 0 0 
1469.61 1.84499e-13 0 0 0 0 0 7.35411e-11 1.91879e-11 1.91879e-11 0 1.31094e-27 0 2.71142e-19 0 0 
1469.87 1.84499e-13 0 0 0 0 0 7.35411e-11 1.91879e-11 1.91879e-11 0 1.31094e-27 0 2.71189e-19 0 0 
1470.12 1.84499e-13 0 0 0 0 0 7.35411e-11 1.91879e-11 1.91879e-11 0 1.31094e-27 0 2.71236e-19 0 0 
1470.38 1.84499e-13 0 0 0 0 0 7.35411e-11 1.91879e-11 1.91879e-11 0 1.31094e-27 0 2.71282e-19 0 0 
1470.63 1.84499e-13 0 0 0 0 0 7.35411e-11 1.91879e-11 1.91879e-11 0 1.31094e-27 0 2.71328e-19 0 0 
1470.88 1.84499e-13 0 0 0 0 0 7.35411e-11 1.91879e-11 1.91879e-11 0 1.31094e-27 0 2.71374e-19 0 0 
1471.12 1.84499e-13 0 0 0 0 0 7.35411e-11 1.91879e-11 1.91879e-11 0 1.31094e-27 0 2.7142e-19 0 0 
1471.37 1.84499e-13 0 0 0 0 0 7.35411e-11 1.91879e-11 1.91879e-11 0 1.31094e-27 0 2.71465e-19 0 0 
1471.61 1.84499e-13 0 0 0 0 0 7.35411e-11 1.91879e-11 1.91879e-11 0 1.31094e-27 0 2.71511e-19 0 0 
1471.86 1.84499e-13 0 0 0 0 0 7.35411e-11 1.91879e-11 1.91879e-11 0 1.31094e-27 0 2.71555e-19 0 0 
1472.1 1.84499e-13 0 0 0 0 0 7.35411e-11 1.91879e-11 1.91879e-11 0 1.31094e-27 0 2.716e-19 0 0 
1472.34 1.84499e-13 0 0 0 0 0 7.35411e-11 1.91879e-11 1.91879e-11 0 1.31094e-27 0 2.71644e-19 0 0 
1472.57 1.84499e-13 0 0 0 0 0 7.35411e-11 1.91879e-11 1.91879e-11 0 1.31094e-27 0 2.71688e-19 0 0 
1472.81 1.84499e-13 0 0 0 0 0 7.35411e-11 1.91879e-11 1.91879e-11 0 1.31094e-27 0 2.71731e-19 0 0 
1473.05 1.84499e-13 0 0 0 0 0 7.35411e-11 1.91879e-11 1.91879e-11 0 1.31094e-27 0 2.71775e-19 0 0 
1473.28 1.84499e-13 0 0 0 0 0 7.35411e-11 1.91879e-11 1.91879e-11 0 1.31094e-27 0 2.71818e-19 0 0 
1473.51 1.84499e-13 0 0 0 0 0 7.35411e-11 1.91879e-11 1.91879e-11 0 1.31094e-27 0 2.7186e-19 0 0 
1473.74 1.84499e-13 0 0 0 0 0 7.35411e-11 1.91879e-11 1.91879e-11 0 1.31094e-27 0 2.71903e-19 0 0 
1473.97 1.84499e-13 0 0 0 0 0 7.35411e-11 1.91879e-11 1.91879e-11 0 1.31094e-27 0 2.71945e-19 0 0 
1474.2 1.84499e-13 0 0 0 0 0 7.35411e-11 1.91879e-11 1.91879e-11 0 1.31094e-27 0 2.71987e-19 0 0 
1474.42 1.84499e-13 0 0 0 0 0 7.35411e-11 1.91879e-11 1.91879e-11 0 1.31094e-27 0 2.72029e-19 0 0 
1474.65 1.84499e-13 0 0 0 0 0 7.35411e-11 1.91879e-11 1.91879e-11 0 1.31094e-27 0 2.7207e-19 0 0 
1474.87 1.84499e-13 0 0 0 0 0 7.35411e-11 1.91879e-11 1.91879e-11 0 1.31094e-27 0 2.72111e-19 0 0 
1475.09 1.84499e-13 0 0 0 0 0 7.35411e-11 1.91879e-11 1.91879e-11 0 1.31094e-27 0 2.72152e-19 0 0 
1475.31 1.84499e-13 0 0 0 0 0 7.35411e-11 1.91879e-11 1.91879e-11 0 1.31094e-27 0 2.72192e-19 0 0 
1475.53 1.84499e-13 0 0 0 0 0 7.35411e-11 1.91879e-11 1.91879e-11 0 1.31094e-27 0 2.72233e-19 0 0 
1475.74 1.84499e-13 0 0 0 0 0 7.35411e-11 1.91879e-11 1.91879e-11 0 1.31094e-27 0 2.72273e-19 0 0 
1475.96 1.84499e-13 0 0 0 0 0 7.35411e-11 1.91879e-11 1.91879e-11 0 1.31094e-27 0 2.72312e-19 0 0 
1476.17 1.84499e-13 0 0 0 0 0 7.35411e-11 1.91879e-11 1.91879e-11 0 1.31094e-27 0 2.72352e-19 0 0 
1476.39 1.84499e-13 0 0 0 0 0 7.35411e-11 1.91879e-11 1.91879e-11 0 1.31094e-27 0 2.72391e-19 0 0 
1476.6 1.84499e-13 0 0 0 0 0 7.35411e-11 1.91879e-11 1.91879e-11 0 1.31094e-27 0 2.7243e-19 0 0 
1476.81 1.84499e-13 0 0 0 0 0 7.35411e-11 1.91879e-11 1.91879e-11 0 1.31094e-27 0 2.72469e-19 0 0 
1477.01 1.84499e-13 0 0 0 0 0 7.35411e-11 1.91879e-11 1.91879e-11 0 1.31094e-27 0 2.72507e-19 0 0 
1477.22 1.84499e-13 0 0 0 0 0 7.35411e-11 1.91879e-11 1.91879e-11 0 1.31094e-27 0 2.72545e-19 0 0 
1477.43 1.84499e-13 0 0 0 0 0 7.35411e-11 1.91879e-11 1.91879e-11 0 1.31094e-27 0 2.72583e-19 0 0 
1477.63 1.84499e-13 0 0 0 0 0 7.35411e-11 1.91879e-11 1.91879e-11 0 1.31094e-27 0 2.72621e-19 0 0 
1477.83 1.84499e-13 0 0 0 0 0 7.35411e-11 1.91879e-11 1.91879e-11 0 1.31094e-27 0 2.72658e-19 0 0 
1478.04 1.84499e-13 0 0 0 0 0 7.35411e-11 1.91879e-11 1.91879e-11 0 1.31094e-27 0 2.72695e-19 0 0 
1478.24 1.84499e-13 0 0 0 0 0 7.35411e-11 1.91879e-11 1.91879e-11 0 1.31094e-27 0 2.72732e-19 0 0 
1478.43 1.84499e-13 0 0 0 0 0 7.35411e-11 1.91879e-11 1.91879e-11 0 1.31094e-27 0 2.72769e-19 0 0 
1478.63 1.84499e-13 0 0 0 0 0 7.35411e-11 1.91879e-11 1.91879e-11 0 1.31094e-27 0 2.72805e-19 0 0 
1478.83 1.84499e-13 0 0 0 0 0 7.35411e-11 1.91879e-11 1.91879e-11 0 1.31094e-27 0 2.72842e-19 0 0 
1479.02 1.84499e-13 0 0 0 0 0 7.35411e-11 1.91879e-11 1.91879e-11 0 1.31094e-27 0 2.72878e-19 0 0 
1479.22 1.84499e-13 0 0 0 0 0 7.35411e-11 1.91879e-11 1.91879e-11 0 1.31094e-27 0 2.72913e-19 0 0 
1479.41 1.84499e-13 0 0 0 0 0 7.35411e-11 1.91879e-11 1.91879e-11 0 1.31094e-27 0 2.72949e-19 0 0 
1479.6 1.84499e-13 0 0 0 0 0 7.35411e-11 1.91879e-11 1.91879e-11 0 1.31094e-27 0 2.72984e-19 0 0 
1479.79 1.84499e-13 0 0 0 0 0 7.35411e-11 1.91879e-11 1.91879e-11 0 1.31094e-27 0 2.73019e-19 0 0 
1479.98 1.84499e-13 0 0 0 0 0 7.35411e-11 1.91879e-11 1.91879e-11 0 1.31094e-27 0 2.73054e-19 0 0 
1480.17 1.84499e-13 0 0 0 0 0 7.35411e-11 1.91879e-11 1.91879e-11 0 1.31094e-27 0 2.73088e-19 0 0 
1480.35 1.84499e-13 0 0 0 0 0 7.35411e-11 1.91879e-11 1.91879e-11 0 1.31094e-27 0 2.73123e-19 0 0 
1480.54 1.84499e-13 0 0 0 0 0 7.35411e-11 1.91879e-11 1.91879e-11 0 1.31094e-27 0 2.73157e-19 0 0 
1480.72 1.84499e-13 0 0 0 0 0 7.35411e-11 1.91879e-11 1.91879e-11 0 1.31094e-27 0 2.73191e-19 0 0 
1480.9 1.84499e-13 0 0 0 0 0 7.35411e-11 1.91879e-11 1.91879e-11 0 1.31094e-27 0 2.73224e-19 0 0 
1481.08 1.84499e-13 0 0 0 0 0 7.35411e-11 1.91879e-11 1.91879e-11 0 1.31094e-27 0 2.73258e-19 0 0 
1481.26 1.84499e-13 0 0 0 0 0 7.35411e-11 1.91879e-11 1.91879e-11 0 1.31094e-27 0 2.73291e-19 0 0 
1481.44 1.84499e-13 0 0 0 0 0 7.35411e-11 1.91879e-11 1.91879e-11 0 1.31094e-27 0 2.73324e-19 0 0 
1481.62 1.84499e-13 0 0 0 0 0 7.35411e-11 1.91879e-11 1.91879e-11 0 1.31094e-27 0 2.73357e-19 0 0 
1481.8 1.84499e-13 0 0 0 0 0 7.35411e-11 1.91879e-11 1.91879e-11 0 1.31094e-27 0 2.73389e-19 0 0 
1481.97 1.84499e-13 0 0 0 0 0 7.35411e-11 1.91879e-11 1.91879e-11 0 1.31094e-27 0 2.73422e-19 0 0 
1482.15 1.84499e-13 0 0 0 0 0 7.35411e-11 1.91879e-11 1.91879e-11 0 1.31094e-27 0 2.73454e-19 0 0 
1482.32 1.84499e-13 0 0 0 0 0 7.35411e-11 1.91879e-11 1.91879e-11 0 1.31094e-27 0 2.73486e-19 0 0 
1482.49 1.84499e-13 0 0 0 0 0 7.35411e-11 1.91879e-11 1.91879e-11 0 1.31094e-27 0 2.73517e-19 0 0 
1482.66 1.84499e-13 0 0 0 0 0 7.35411e-11 1.91879e-11 1.91879e-11 0 1.31094e-27 0 2.73549e-19 0 0 
1482.83 1.84499e-13 0 0 0 0 0 7.35411e-11 1.91879e-11 1.91879e-11 0 1.31094e-27 0 2.7358e-19 0 0 
1483 1.84499e-13 0 0 0 0 0 7.35411e-11 1.91879e-11 1.91879e-11 0 1.31094e-27 0 2.73611e-19 0 0 
1483.17 1.84499e-13 0 0 0 0 0 7.35411e-11 1.91879e-11 1.91879e-11 0 1.31094e-27 0 2.73642e-19 0 0 
1483.33 1.84499e-13 0 0 0 0 0 7.35411e-11 1.91879e-11 1.91879e-11 0 1.31094e-27 0 2.73673e-19 0 0 
1483.5 1.84499e-13 0 0 0 0 0 7.35411e-11 1.91879e-11 1.91879e-11 0 1.31094e-27 0 2.73703e-19 0 0 
1483.66 1.84499e-13 0 0 0 0 0 7.35411e-11 1.91879e-11 1.91879e-11 0 1.31094e-27 0 2.73734e-19 0 0 
1483.82 1.84499e-13 0 0 0 0 0 7.35411e-11 1.91879e-11 1.91879e-11 0 1.31094e-27 0 2.73764e-19 0 0 
1483.99 1.84499e-13 0 0 0 0 0 7.35411e-11 1.91879e-11 1.91879e-11 0 1.31094e-27 0 2.73793e-19 0 0 
1484.15 1.84499e-13 0 0 0 0 0 7.35411e-11 1.91879e-11 1.91879e-11 0 1.31094e-27 0 2.73823e-19 0 0 
1484.31 1.84499e-13 0 0 0 0 0 7.35411e-11 1.91879e-11 1.91879e-11 0 1.31094e-27 0 2.73853e-19 0 0 
1484.47 1.84499e-13 0 0 0 0 0 7.35411e-11 1.91879e-11 1.91879e-11 0 1.31094e-27 0 2.73882e-19 0 0 
1484.62 1.84499e-13 0 0 0 0 0 7.35411e-11 1.91879e-11 1.91879e-11 0 1.31094e-27 0 2.73911e-19 0 0 
1484.78 1.84499e-13 0 0 0 0 0 7.35411e-11 1.91879e-11 1.91879e-11 0 1.31094e-27 0 2.7394e-19 0 0 
1484.94 1.84499e-13 0 0 0 0 0 7.35411e-11 1.91879e-11 1.91879e-11 0 1.31094e-27 0 2.73969e-19 0 0 
1485.09 1.84499e-13 0 0 0 0 0 7.35411e-11 1.91879e-11 1.91879e-11 0 1.31094e-27 0 2.73997e-19 0 0 
1485.24 1.84499e-13 0 0 0 0 0 7.35411e-11 1.91879e-11 1.91879e-11 0 1.31094e-27 0 2.74025e-19 0 0 
1485.4 1.84499e-13 0 0 0 0 0 7.35411e-11 1.91879e-11 1.91879e-11 0 1.31094e-27 0 2.74054e-19 0 0 
1485.55 1.84499e-13 0 0 0 0 0 7.35411e-11 1.91879e-11 1.91879e-11 0 1.31094e-27 0 2.74081e-19 0 0 
1485.7 1.84499e-13 0 0 0 0 0 7.35411e-11 1.91879e-11 1.91879e-11 0 1.31094e-27 0 2.74109e-19 0 0 
1485.85 1.84499e-13 0 0 0 0 0 7.35411e-11 1.91879e-11 1.91879e-11 0 1.31094e-27 0 2.74137e-19 0 0 
1486 1.84499e-13 0 0 0 0 0 7.35411e-11 1.91879e-11 1.91879e-11 0 1.31094e-27 0 2.74164e-19 0 0 
1486.14 1.84499e-13 0 0 0 0 0 7.35411e-11 1.91879e-11 1.91879e-11 0 1.31094e-27 0 2.74191e-19 0 0 
1486.29 1.84499e-13 0 0 0 0 0 7.35411e-11 1.91879e-11 1.91879e-11 0 1.31094e-27 0 2.74218e-19 0 0 
1486.44 1.84499e-13 0 0 0 0 0 7.35411e-11 1.91879e-11 1.91879e-11 0 1.31094e-27 0 2.74245e-19 0 0 
1486.58 1.84499e-13 0 0 0 0 0 7.35411e-11 1.91879e-11 1.91879e-11 0 1.31094e-27 0 2.74272e-19 0 0 
1486.72 1.84499e-13 0 0 0 0 0 7.35411e-11 1.91879e-11 1.91879e-11 0 1.31094e-27 0 2.74298e-19 0 0 
1486.87 1.84499e-13 0 0 0 0 0 7.35411e-11 1.91879e-11 1.91879e-11 0 1.31094e-27 0 2.74325e-19 0 0 
1487.01 1.84499e-13 0 0 0 0 0 7.35411e-11 1.91879e-11 1.91879e-11 0 1.31094e-27 0 2.74351e-19 0 0 
1487.15 1.84499e-13 0 0 0 0 0 7.35411e-11 1.91879e-11 1.91879e-11 0 1.31094e-27 0 2.74377e-19 0 0 
1487.29 1.84499e-13 0 0 0 0 0 7.35411e-11 1.91879e-11 1.91879e-11 0 1.31094e-27 0 2.74403e-19 0 0 
1487.43 1.84499e-13 0 0 0 0 0 7.35411e-11 1.91879e-11 1.91879e-11 0 1.31094e-27 0 2.74428e-19 0 0 
1487.57 1.84499e-13 0 0 0 0 0 7.35411e-11 1.91879e-11 1.91879e-11 0 1.31094e-27 0 2.74454e-19 0 0 
1487.7 1.84499e-13 0 0 0 0 0 7.35411e-11 1.91879e-11 1.91879e-11 0 1.31094e-27 0 2.74479e-19 0 0 
1487.84 1.84499e-13 0 0 0 0 0 7.35411e-11 1.91879e-11 1.91879e-11 0 1.31094e-27 0 2.74504e-19 0 0 
1487.97 1.84499e-13 0 0 0 0 0 7.35411e-11 1.91879e-11 1.91879e-11 0 1.31094e-27 0 2.74529e-19 0 0 
1488.11 1.84499e-13 0 0 0 0 0 7.35411e-11 1.91879e-11 1.91879e-11 0 1.31094e-27 0 2.74554e-19 0 0 
1488.24 1.84499e-13 0 0 0 0 0 7.35411e-11 1.91879e-11 1.91879e-11 0 1.31094e-27 0 2.74579e-19 0 0 
1488.38 1.84499e-13 0 0 0 0 0 7.35411e-11 1.91879e-11 1.91879e-11 0 1.31094e-27 0 2.74603e-19 0 0 
1488.51 1.84499e-13 0 0 0 0 0 7.35411e-11 1.91879e-11 1.91879e-11 0 1.31094e-27 0 2.74627e-19 0 0 
1488.64 1.84499e-13 0 0 0 0 0 7.35411e-11 1.91879e-11 1.91879e-11 0 1.31094e-27 0 2.74652e-19 0 0 
1488.77 1.84499e-13 0 0 0 0 0 7.35411e-11 1.91879e-11 1.91879e-11 0 1.31094e-27 0 2.74676e-19 0 0 
1488.9 1.84499e-13 0 0 0 0 0 7.35411e-11 1.91879e-11 1.91879e-11 0 1.31094e-27 0 2.74699e-19 0 0 
1489.03 1.84499e-13 0 0 0 0 0 7.35411e-11 1.91879e-11 1.91879e-11 0 1.31094e-27 0 2.74723e-19 0 0 
1489.15 1.84499e-13 0 0 0 0 0 7.35411e-11 1.91879e-11 1.91879e-11 0 1.31094e-27 0 2.74747e-19 0 0 
1489.28 1.84499e-13 0 0 0 0 0 7.35411e-11 1.91879e-11 1.91879e-11 0 1.31094e-27 0 2.7477e-19 0 0 
1489.41 1.84499e-13 0 0 0 0 0 7.35411e-11 1.91879e-11 1.91879e-11 0 1.31094e-27 0 2.74793e-19 0 0 
1489.53 1.84499e-13 0 0 0 0 0 7.35411e-11 1.91879e-11 1.91879e-11 0 1.31094e-27 0 2.74816e-19 0 0 
1489.65 1.84499e-13 0 0 0 0 0 7.35411e-11 1.91879e-11 1.91879e-11 0 1.31094e-27 0 2.74839e-19 0 0 
1489.78 1.84499e-13 0 0 0 0 0 7.35411e-11 1.91879e-11 1.91879e-11 0 1.31094e-27 0 2.74862e-19 0 0 
1489.9 1.84499e-13 0 0 0 0 0 7.35411e-11 1.91879e-11 1.91879e-11 0 1.31094e-27 0 2.74884e-19 0 0 
1490.02 1.84499e-13 0 0 0 0 0 7.35411e-11 1.91879e-11 1.91879e-11 0 1.31094e-27 0 2.74907e-19 0 0 
1490.14 1.84499e-13 0 0 0 0 0 7.35411e-11 1.91879e-11 1.91879e-11 0 1.31094e-27 0 2.74929e-19 0 0 
1490.26 1.84499e-13 0 0 0 0 0 7.35411e-11 1.91879e-11 1.91879e-11 0 1.31094e-27 0 2.74951e-19 0 0 
1490.38 1.84499e-13 0 0 0 0 0 7.35411e-11 1.91879e-11 1.91879e-11 0 1.31094e-27 0 2.74973e-19 0 0 
1490.5 1.84499e-13 0 0 0 0 0 7.35411e-11 1.91879e-11 1.91879e-11 0 1.31094e-27 0 2.74995e-19 0 0 
1490.62 1.84499e-13 0 0 0 0 0 7.35411e-11 1.91879e-11 1.91879e-11 0 1.31094e-27 0 2.75017e-19 0 0 
1490.74 1.84499e-13 0 0 0 0 0 7.35411e-11 1.91879e-11 1.91879e-11 0 1.31094e-27 0 2.75039e-19 0 0 
1490.85 1.84499e-13 0 0 0 0 0 7.35411e-11 1.91879e-11 1.91879e-11 0 1.31094e-27 0 2.7506e-19 0 0 
1490.97 1.84499e-13 0 0 0 0 0 7.35411e-11 1.91879e-11 1.91879e-11 0 1.31094e-27 0 2.75081e-19 0 0 
1491.08 1.84499e-13 0 0 0 0 0 7.35411e-11 1.91879e-11 1.91879e-11 0 1.31094e-27 0 2.75102e-19 0 0 
1491.2 1.84499e-13 0 0 0 0 0 7.35411e-11 1.91879e-11 1.91879e-11 0 1.31094e-27 0 2.75123e-19 0 0 
1491.31 1.84499e-13 0 0 0 0 0 7.35411e-11 1.91879e-11 1.91879e-11 0 1.31094e-27 0 2.75144e-19 0 0 
1491.42 1.84499e-13 0 0 0 0 0 7.35411e-11 1.91879e-11 1.91879e-11 0 1.31094e-27 0 2.75165e-19 0 0 
1491.53 1.84499e-13 0 0 0 0 0 7.35411e-11 1.91879e-11 1.91879e-11 0 1.31094e-27 0 2.75186e-19 0 0 
1491.64 1.84499e-13 0 0 0 0 0 7.35411e-11 1.91879e-11 1.91879e-11 0 1.31094e-27 0 2.75206e-19 0 0 
1491.75 1.84499e-13 0 0 0 0 0 7.35411e-11 1.91879e-11 1.91879e-11 0 1.31094e-27 0 2.75226e-19 0 0 
1491.86 1.84499e-13 0 0 0 0 0 7.35411e-11 1.91879e-11 1.91879e-11 0 1.31094e-27 0 2.75247e-19 0 0 
1491.97 1.84499e-13 0 0 0 0 0 7.35411e-11 1.91879e-11 1.91879e-11 0 1.31094e-27 0 2.75267e-19 0 0 
1492.08 1.84499e-13 0 0 0 0 0 7.35411e-11 1.91879e-11 1.91879e-11 0 1.31094e-27 0 2.75287e-19 0 0 
1492.19 1.84499e-13 0 0 0 0 0 7.35411e-11 1.91879e-11 1.91879e-11 0 1.31094e-27 0 2.75306e-19 0 0 
1492.29 1.84499e-13 0 0 0 0 0 7.35411e-11 1.91879e-11 1.91879e-11 0 1.31094e-27 0 2.75326e-19 0 0 
1492.4 1.84499e-13 0 0 0 0 0 7.35411e-11 1.91879e-11 1.91879e-11 0 1.31094e-27 0 2.75346e-19 0 0 
1492.5 1.84499e-13 0 0 0 0 0 7.35411e-11 1.91879e-11 1.91879e-11 0 1.31094e-27 0 2.75365e-19 0 0 
1492.61 1.84499e-13 0 0 0 0 0 7.35411e-11 1.91879e-11 1.91879e-11 0 1.31094e-27 0 2.75384e-19 0 0 
1492.71 1.84499e-13 0 0 0 0 0 7.35411e-11 1.91879e-11 1.91879e-11 0 1.31094e-27 0 2.75403e-19 0 0 
1492.82 1.84499e-13 0 0 0 0 0 7.35411e-11 1.91879e-11 1.91879e-11 0 1.31094e-27 0 2.75422e-19 0 0 
1492.92 1.84499e-13 0 0 0 0 0 7.35411e-11 1.91879e-11 1.91879e-11 0 1.31094e-27 0 2.75441e-19 0 0 
1493.02 1.84499e-13 0 0 0 0 0 7.35411e-11 1.91879e-11 1.91879e-11 0 1.31094e-27 0 2.7546e-19 0 0 
1493.12 1.84499e-13 0 0 0 0 0 7.35411e-11 1.91879e-11 1.91879e-11 0 1.31094e-27 0 2.75479e-19 0 0 
1493.22 1.84499e-13 0 0 0 0 0 7.35411e-11 1.91879e-11 1.91879e-11 0 1.31094e-27 0 2.75497e-19 0 0 
1493.32 1.84499e-13 0 0 0 0 0 7.35411e-11 1.91879e-11 1.91879e-11 0 1.31094e-27 0 2.75516e-19 0 0 
1493.42 1.84499e-13 0 0 0 0 0 7.35411e-11 1.91879e-11 1.91879e-11 0 1.31094e-27 0 2.75534e-19 0 0 
1493.52 1.84499e-13 0 0 0 0 0 7.35411e-11 1.91879e-11 1.91879e-11 0 1.31094e-27 0 2.75552e-19 0 0 
1493.62 1.84499e-13 0 0 0 0 0 7.35411e-11 1.91879e-11 1.91879e-11 0 1.31094e-27 0 2.7557e-19 0 0 
1493.71 1.84499e-13 0 0 0 0 0 7.35411e-11 1.91879e-11 1.91879e-11 0 1.31094e-27 0 2.75588e-19 0 0 
1493.81 1.84499e-13 0 0 0 0 0 7.35411e-11 1.91879e-11 1.91879e-11 0 1.31094e-27 0 2.75606e-19 0 0 
1493.91 1.84499e-13 0 0 0 0 0 7.35411e-11 1.91879e-11 1.91879e-11 0 1.31094e-27 0 2.75623e-19 0 0 
1494 1.84499e-13 0 0 0 0 0 7.35411e-11 1.91879e-11 1.91879e-11 0 1.31094e-27 0 2.75641e-19 0 0 
1494.1 1.84499e-13 0 0 0 0 0 7.35411e-11 1.91879e-11 1.91879e-11 0 1.31094e-27 0 2.75658e-19 0 0 
1494.19 1.84499e-13 0 0 0 0 0 7.35411e-11 1.91879e-11 1.91879e-11 0 1.31094e-27 0 2.75676e-19 0 0 
1494.28 1.84499e-13 0 0 0 0 0 7.35411e-11 1.91879e-11 1.91879e-11 0 1.31094e-27 0 2.75693e-19 0 0 
1494.37 1.84499e-13 0 0 0 0 0 7.35411e-11 1.91879e-11 1.91879e-11 0 1.31094e-27 0 2.7571e-19 0 0 
1494.47 1.84499e-13 0 0 0 0 0 7.35411e-11 1.91879e-11 1.91879e-11 0 1.31094e-27 0 2.75727e-19 0 0 
1494.56 1.84499e-13 0 0 0 0 0 7.35411e-11 1.91879e-11 1.91879e-11 0 1.31094e-27 0 2.75744e-19 0 0 
1494.65 1.84499e-13 0 0 0 0 0 7.35411e-11 1.91879e-11 1.91879e-11 0 1.31094e-27 0 2.75761e-19 0 0 
1494.74 1.84499e-13 0 0 0 0 0 7.35411e-11 1.91879e-11 1.91879e-11 0 1.31094e-27 0 2.75777e-19 0 0 
1494.83 1.84499e-13 0 0 0 0 0 7.35411e-11 1.91879e-11 1.91879e-11 0 1.31094e-27 0 2.75794e-19 0 0 
1494.92 1.84499e-13 0 0 0 0 0 7.35411e-11 1.91879e-11 1.91879e-11 0 1.31094e-27 0 2.7581e-19 0 0 
1495.01 1.84499e-13 0 0 0 0 0 7.35411e-11 1.91879e-11 1.91879e-11 0 1.31094e-27 0 2.75827e-19 0 0 
1495.09 1.84499e-13 0 0 0 0 0 7.35411e-11 1.91879e-11 1.91879e-11 0 1.31094e-27 0 2.75843e-19 0 0 
1495.18 1.84499e-13 0 0 0 0 0 7.35411e-11 1.91879e-11 1.91879e-11 0 1.31094e-27 0 2.75859e-19 0 0 
1495.27 1.84499e-13 0 0 0 0 0 7.35411e-11 1.91879e-11 1.91879e-11 0 1.31094e-27 0 2.75875e-19 0 0 
1495.35 1.84499e-13 0 0 0 0 0 7.35411e-11 1.91879e-11 1.91879e-11 0 1.31094e-27 0 2.75891e-19 0 0 
1495.44 1.84499e-13 0 0 0 0 0 7.35411e-11 1.91879e-11 1.91879e-11 0 1.31094e-27 0 2.75907e-19 0 0 
1495.53 1.84499e-13 0 0 0 0 0 7.35411e-11 1.91879e-11 1.91879e-11 0 1.31094e-27 0 2.75922e-19 0 0 
1495.61 1.84499e-13 0 0 0 0 0 7.35411e-11 1.91879e-11 1.91879e-11 0 1.31094e-27 0 2.75938e-19 0 0 
1495.69 1.84499e-13 0 0 0 0 0 7.35411e-11 1.91879e-11 1.91879e-11 0 1.31094e-27 0 2.75953e-19 0 0 
1495.78 1.84499e-13 0 0 0 0 0 7.35411e-11 1.91879e-11 1.91879e-11 0 1.31094e-27 0 2.75969e-19 0 0 
1495.86 1.84499e-13 0 0 0 0 0 7.35411e-11 1.91879e-11 1.91879e-11 0 1.31094e-27 0 2.75984e-19 0 0 
1495.94 1.84499e-13 0 0 0 0 0 7.35411e-11 1.91879e-11 1.91879e-11 0 1.31094e-27 0 2.75999e-19 0 0 
1496.02 1.84499e-13 0 0 0 0 0 7.35411e-11 1.91879e-11 1.91879e-11 0 1.31094e-27 0 2.76014e-19 0 0 
1496.11 1.84499e-13 0 0 0 0 0 7.35411e-11 1.91879e-11 1.91879e-11 0 1.31094e-27 0 2.76029e-19 0 0 
1496.19 1.84499e-13 0 0 0 0 0 7.35411e-11 1.91879e-11 1.91879e-11 0 1.31094e-27 0 2.76044e-19 0 0 
1496.27 1.84499e-13 0 0 0 0 0 7.35411e-11 1.91879e-11 1.91879e-11 0 1.31094e-27 0 2.76059e-19 0 0 
1496.35 1.84499e-13 0 0 0 0 0 7.35411e-11 1.91879e-11 1.91879e-11 0 1.31094e-27 0 2.76074e-19 0 0 
1496.42 1.84499e-13 0 0 0 0 0 7.35411e-11 1.91879e-11 1.91879e-11 0 1.31094e-27 0 2.76088e-19 0 0 
1496.5 1.84499e-13 0 0 0 0 0 7.35411e-11 1.91879e-11 1.91879e-11 0 1.31094e-27 0 2.76103e-19 0 0 
1496.58 1.84499e-13 0 0 0 0 0 7.35411e-11 1.91879e-11 1.91879e-11 0 1.31094e-27 0 2.76117e-19 0 0 
1496.66 1.84499e-13 0 0 0 0 0 7.35411e-11 1.91879e-11 1.91879e-11 0 1.31094e-27 0 2.76131e-19 0 0 
1496.74 1.84499e-13 0 0 0 0 0 7.35411e-11 1.91879e-11 1.91879e-11 0 1.31094e-27 0 2.76146e-19 0 0 
1496.81 1.84499e-13 0 0 0 0 0 7.35411e-11 1.91879e-11 1.91879e-11 0 1.31094e-27 0 2.7616e-19 0 0 
1496.89 1.84499e-13 0 0 0 0 0 7.35411e-11 1.91879e-11 1.91879e-11 0 1.31094e-27 0 2.76174e-19 0 0 
1496.96 1.84499e-13 0 0 0 0 0 7.35411e-11 1.91879e-11 1.91879e-11 0 1.31094e-27 0 2.76188e-19 0 0 
1497.04 1.84499e-13 0 0 0 0 0 7.35411e-11 1.91879e-11 1.91879e-11 0 1.31094e-27 0 2.76201e-19 0 0 
1497.11 1.84499e-13 0 0 0 0 0 7.35411e-11 1.91879e-11 1.91879e-11 0 1.31094e-27 0 2.76215e-19 0 0 
1497.19 1.84499e-13 0 0 0 0 0 7.35411e-11 1.91879e-11 1.91879e-11 0 1.31094e-27 0 2.76229e-19 0 0 
1497.26 1.84499e-13 0 0 0 0 0 7.35411e-11 1.91879e-11 1.91879e-11 0 1.31094e-27 0 2.76242e-19 0 0 
1497.33 1.84499e-13 0 0 0 0 0 7.35411e-11 1.91879e-11 1.91879e-11 0 1.31094e-27 0 2.76256e-19 0 0 
1497.41 1.84499e-13 0 0 0 0 0 7.35411e-11 1.91879e-11 1.91879e-11 0 1.31094e-27 0 2.76269e-19 0 0 
1497.48 1.84499e-13 0 0 0 0 0 7.35411e-11 1.91879e-11 1.91879e-11 0 1.31094e-27 0 2.76283e-19 0 0 
1497.55 1.84499e-13 0 0 0 0 0 7.35411e-11 1.91879e-11 1.91879e-11 0 1.31094e-27 0 2.76296e-19 0 0 
1497.62 1.84499e-13 0 0 0 0 0 7.35411e-11 1.91879e-11 1.91879e-11 0 1.31094e-27 0 2.76309e-19 0 0 
1497.69 1.84499e-13 0 0 0 0 0 7.35411e-11 1.91879e-11 1.91879e-11 0 1.31094e-27 0 2.76322e-19 0 0 
1497.76 1.84499e-13 0 0 0 0 0 7.35411e-11 1.91879e-11 1.91879e-11 0 1.31094e-27 0 2.76335e-19 0 0 
1497.83 1.84499e-13 0 0 0 0 0 7.35411e-11 1.91879e-11 1.91879e-11 0 1.31094e-27 0 2.76348e-19 0 0 
1497.9 1.84499e-13 0 0 0 0 0 7.35411e-11 1.91879e-11 1.91879e-11 0 1.31094e-27 0 2.7636e-19 0 0 
1497.97 1.84499e-13 0 0 0 0 0 7.35411e-11 1.91879e-11 1.91879e-11 0 1.31094e-27 0 2.76373e-19 0 0 
1498.04 1.84499e-13 0 0 0 0 0 7.35411e-11 1.91879e-11 1.91879e-11 0 1.31094e-27 0 2.76386e-19 0 0 
1498.11 1.84499e-13 0 0 0 0 0 7.35411e-11 1.91879e-11 1.91879e-11 0 1.31094e-27 0 2.76398e-19 0 0 
1498.17 1.84499e-13 0 0 0 0 0 7.35411e-11 1.91879e-11 1.91879e-11 0 1.31094e-27 0 2.76411e-19 0 0 
1498.24 1.84499e-13 0 0 0 0 0 7.35411e-11 1.91879e-11 1.91879e-11 0 1.31094e-27 0 2.76423e-19 0 0 
1498.31 1.84499e-13 0 0 0 0 0 7.35411e-11 1.91879e-11 1.91879e-11 0 1.31094e-27 0 2.76435e-19 0 0 
1498.37 1.84499e-13 0 0 0 0 0 7.35411e-11 1.91879e-11 1.91879e-11 0 1.31094e-27 0 2.76448e-19 0 0 
1498.44 1.84499e-13 0 0 0 0 0 7.35411e-11 1.91879e-11 1.91879e-11 0 1.31094e-27 0 2.7646e-19 0 0 
1498.5 1.84499e-13 0 0 0 0 0 7.35411e-11 1.91879e-11 1.91879e-11 0 1.31094e-27 0 2.76472e-19 0 0 
1498.57 1.84499e-13 0 0 0 0 0 7.35411e-11 1.91879e-11 1.91879e-11 0 1.31094e-27 0 2.76484e-19 0 0 
1498.63 1.84499e-13 0 0 0 0 0 7.35411e-11 1.91879e-11 1.91879e-11 0 1.31094e-27 0 2.76496e-19 0 0 
1498.7 1.84499e-13 0 0 0 0 0 7.35411e-11 1.91879e-11 1.91879e-11 0 1.31094e-27 0 2.76507e-19 0 0 
1498.76 1.84499e-13 0 0 0 0 0 7.35411e-11 1.91879e-11 1.91879e-11 0 1.31094e-27 0 2.76519e-19 0 0 
1498.82 1.84499e-13 0 0 0 0 0 7.35411e-11 1.91879e-11 1.91879e-11 0 1.31094e-27 0 2.76531e-19 0 0 
1498.89 1.84499e-13 0 0 0 0 0 7.35411e-11 1.91879e-11 1.91879e-11 0 1.31094e-27 0 2.76542e-19 0 0 
1498.95 1.84499e-13 0 0 0 0 0 7.35411e-11 1.91879e-11 1.91879e-11 0 1.31094e-27 0 2.76554e-19 0 0 
1499.01 1.84499e-13 0 0 0 0 0 7.35411e-11 1.91879e-11 1.91879e-11 0 1.31094e-27 0 2.76565e-19 0 0 
1499.07 1.84499e-13 0 0 0 0 0 7.35411e-11 1.91879e-11 1.91879e-11 0 1.31094e-27 0 2.76576e-19 0 0 
1499.13 1.84499e-13 0 0 0 0 0 7.35411e-11 1.91879e-11 1.91879e-11 0 1.31094e-27 0 2.76588e-19 0 0 
1499.19 1.84499e-13 0 0 0 0 0 7.35411e-11 1.91879e-11 1.91879e-11 0 1.31094e-27 0 2.76599e-19 0 0 
1499.25 1.84499e-13 0 0 0 0 0 7.35411e-11 1.91879e-11 1.91879e-11 0 1.31094e-27 0 2.7661e-19 0 0 
1499.31 1.84499e-13 0 0 0 0 0 7.35411e-11 1.91879e-11 1.91879e-11 0 1.31094e-27 0 2.76621e-19 0 0 
1499.37 1.84499e-13 0 0 0 0 0 7.35411e-11 1.91879e-11 1.91879e-11 0 1.31094e-27 0 2.76632e-19 0 0 
1499.43 1.84499e-13 0 0 0 0 0 7.35411e-11 1.91879e-11 1.91879e-11 0 1.31094e-27 0 2.76643e-19 0 0 
1499.49 1.84499e-13 0 0 0 0 0 7.35411e-11 1.91879e-11 1.91879e-11 0 1.31094e-27 0 2.76654e-19 0 0 
1499.55 1.84499e-13 0 0 0 0 0 7.35411e-11 1.91879e-11 1.91879e-11 0 1.31094e-27 0 2.76664e-19 0 0 
1499.61 1.84499e-13 0 0 0 0 0 7.35411e-11 1.91879e-11 1.91879e-11 0 1.31094e-27 0 2.76675e-19 0 0 
1499.66 1.84499e-13 0 0 0 0 0 7.35411e-11 1.91879e-11 1.91879e-11 0 1.31094e-27 0 2.76686e-19 0 0 
1499.72 1.84499e-13 0 0 0 0 0 7.35411e-11 1.91879e-11 1.91879e-11 0 1.31094e-27 0 2.76696e-19 0 0 
1499.78 1.84499e-13 0 0 0 0 0 7.35411e-11 1.91879e-11 1.91879e-11 0 1.31094e-27 0 2.76707e-19 0 0 
1499.83 1.84499e-13 0 0 0 0 0 7.35411e-11 1.91879e-11 1.91879e-11 0 1.31094e-27 0 2.76717e-19 0 0 
1499.89 1.84499e-13 0 0 0 0 0 7.35411e-11 1.91879e-11 1.91879e-11 0 1.31094e-27 0 2.76727e-19 0 0 
1499.94 1.84499e-13 0 0 0 0 0 7.35411e-11 1.91879e-11 1.91879e-11 0 1.31094e-27 0 2.76738e-19 0 0 
1500 1.84499e-13 0 0 0 0 0 7.35411e-11 1.91879e-11 1.91879e-11 0 1.31094e-27 0 2.76748e-19 0 0 
1500 0.0064042 -0.0104271 -0.0104271 0 2.68882e-17 0 7.35414e-11 -4.44119 -4.44119 0 5.89406e-15 0 2.76748e-19 0 0 
1500.06 0.0064042 -0.0104271 -0.0104271 0 2.68882e-17 0 7.35412e-11 -4.44119 -4.44119 0 5.89406e-15 0 3.47516e-13 0 0 
1500.11 0.0064042 -0.0104271 -0.0104271 0 2.68882e-17 0 7.35403e-11 -4.44119 -4.44119 0 5.89406e-15 0 6.95032e-13 0 0 
1500.17 0.0064042 -0.0104271 -0.0104271 0 2.68882e-17 0 7.35405e-11 -4.44119 -4.44119 0 5.89406e-15 0 1.04255e-12 0 0 
1500.22 0.0064042 -0.0104271 -0.0104271 0 2.68882e-17 0 7.35396e-11 -4.44119 -4.44119 0 5.89406e-15 0 1.39006e-12 0 0 
1500.28 0.0064042 -0.0104271 -0.0104271 0 2.68882e-17 0 7.35407e-11 -4.44119 -4.44119 0 5.89406e-15 0 1.73758e-12 0 0 
1500.33 0.0064042 -0.0104271 -0.0104271 0 2.68882e-17 0 7.35425e-11 -4.44119 -4.44119 0 5.89406e-15 0 2.0851e-12 0 0 
1500.39 0.0064042 -0.0104271 -0.0104271 0 2.68882e-17 0 7.3539e-11 -4.44119 -4.44119 0 5.89406e-15 0 2.43261e-12 0 0 
1500.44 0.0064042 -0.0104271 -0.0104271 0 2.68882e-17 0 7.35365e-11 -4.44119 -4.44119 0 5.89406e-15 0 2.78013e-12 0 0 
1500.5 0.0064042 -0.0104271 -0.0104271 0 2.68882e-17 0 7.35365e-11 -4.44119 -4.44119 0 5.89406e-15 0 3.12764e-12 0 0 
1500.55 0.0064042 -0.0104271 -0.0104271 0 2.68882e-17 0 7.35343e-11 -4.44119 -4.44119 0 5.89406e-15 0 3.47516e-12 0 0 
1500.61 0.0064042 -0.0104271 -0.0104271 0 2.68882e-17 0 7.35343e-11 -4.44119 -4.44119 0 5.89406e-15 0 3.82268e-12 0 0 
1500.66 0.0064042 -0.0104271 -0.0104271 0 2.68882e-17 0 7.3539e-11 -4.44119 -4.44119 0 5.89406e-15 0 4.17019e-12 0 0 
1500.72 0.0064042 -0.0104271 -0.0104271 0 2.68882e-17 0 7.35414e-11 -4.44119 -4.44119 0 5.89406e-15 0 4.51771e-12 0 0 
1500.77 0.0064042 -0.0104271 -0.0104271 0 2.68882e-17 0 7.35461e-11 -4.44119 -4.44119 0 5.89406e-15 0 4.86522e-12 0 0 
1500.83 0.0064042 -0.0104271 -0.0104271 0 2.68882e-17 0 7.35436e-11 -4.44119 -4.44119 0 5.89406e-15 0 5.21274e-12 0 0 
1500.88 0.0064042 -0.0104271 -0.0104271 0 2.68882e-17 0 7.35365e-11 -4.44119 -4.44119 0 5.89406e-15 0 5.56026e-12 0 0 
1500.94 0.0064042 -0.0104271 -0.0104271 0 2.68882e-17 0 7.35343e-11 -4.44119 -4.44119 0 5.89406e-15 0 5.90777e-12 0 0 
1500.99 0.0064042 -0.0104271 -0.0104271 0 2.68882e-17 0 7.35272e-11 -4.44119 -4.44119 0 5.89406e-15 0 6.25529e-12 0 0 
1501.05 0.0064042 -0.0104271 -0.0104271 0 2.68882e-17 0 7.35247e-11 -4.44119 -4.44119 0 5.89406e-15 0 6.6028e-12 0 0 
1501.1 0.0064042 -0.0104271 -0.0104271 0 2.68882e-17 0 7.35296e-11 -4.44119 -4.44119 0 5.89406e-15 0 6.95032e-12 0 0 
1501.16 0.0064042 -0.0104271 -0.0104271 0 2.68882e-17 0 7.35272e-11 -4.44119 -4.44119 0 5.89406e-15 0 7.29784e-12 0 0 
1501.21 0.0064042 -0.0104271 -0.0104271 0 2.68882e-17 0 7.35272e-11 -4.44119 -4.44119 0 5.89406e-15 0 7.64535e-12 0 0 
1501.27 0.0064042 -0.0104271 -0.0104271 0 2.68882e-17 0 7.35272e-11 -4.44119 -4.44119 0 5.89406e-15 0 7.99287e-12 0 0 
1501.32 0.0064042 -0.0104271 -0.0104271 0 2.68882e-17 0 7.35318e-11 -4.44119 -4.44119 0 5.89406e-15 0 8.34038e-12 0 0 
1501.38 0.0064042 -0.0104271 -0.0104271 0 2.68882e-17 0 7.35414e-11 -4.44119 -4.44119 0 5.89406e-15 0 8.6879e-12 0 0 
1501.43 0.0064042 -0.0104271 -0.0104271 0 2.68882e-17 0 7.35414e-11 -4.44119 -4.44119 0 5.89406e-15 0 9.03542e-12 0 0 
1501.49 0.0064042 -0.0104271 -0.0104271 0 2.68882e-17 0 7.35414e-11 -4.44119 -4.44119 0 5.89406e-15 0 9.38293e-12 0 0 
1501.54 0.0064042 -0.0104271 -0.0104271 0 2.68882e-17 0 7.35414e-11 -4.44119 -4.44119 0 5.89406e-15 0 9.73045e-12 0 0 
1501.6 0.0064042 -0.0104271 -0.0104271 0 2.68882e-17 0 7.35461e-11 -4.44119 -4.44119 0 5.89406e-15 0 1.0078e-11 0 0 
1501.65 0.0064042 -0.0104271 -0.0104271 0 2.68882e-17 0 7.35414e-11 -4.44119 -4.44119 0 5.89406e-15 0 1.04255e-11 0 0 
1501.71 0.0064042 -0.0104271 -0.0104271 0 2.68882e-17 0 7.35225e-11 -4.44119 -4.44119 0 5.89406e-15 0 1.0773e-11 0 0 
1501.76 0.0064042 -0.0104271 -0.0104271 0 2.68882e-17 0 7.35176e-11 -4.44119 -4.44119 0 5.89406e-15 0 1.11205e-11 0 0 
1501.82 0.0064042 -0.0104271 -0.0104271 0 2.68882e-17 0 7.35272e-11 -4.44119 -4.44119 0 5.89406e-15 0 1.1468e-11 0 0 
1501.87 0.0064042 -0.0104271 -0.0104271 0 2.68882e-17 0 7.35225e-11 -4.44119 -4.44119 0 5.89406e-15 0 1.18155e-11 0 0 
1501.93 0.0064042 -0.0104271 -0.0104271 0 2.68882e-17 0 7.3513e-11 -4.44119 -4.44119 0 5.89406e-15 0 1.21631e-11 0 0 
1501.98 0.0064042 -0.0104271 -0.0104271 0 2.68882e-17 0 7.35176e-11 -4.44119 -4.44119 0 5.89406e-15 0 1.25106e-11 0 0 
1502.04 0.0064042 -0.0104271 -0.0104271 0 2.68882e-17 0 7.35414e-11 -4.44119 -4.44119 0 5.89406e-15 0 1.28581e-11 0 0 
1502.09 0.0064042 -0.0104271 -0.0104271 0 2.68882e-17 0 7.35698e-11 -4.44119 -4.44119 0 5.89406e-15 0 1.32056e-11 0 0 
1502.15 0.0064042 -0.0104271 -0.0104271 0 2.68882e-17 0 7.35603e-11 -4.44119 -4.44119 0 5.89406e-15 0 1.35531e-11 0 0 
1502.2 0.0064042 -0.0104271 -0.0104271 0 2.68882e-17 0 7.35461e-11 -4.44119 -4.44119 0 5.89406e-15 0 1.39006e-11 0 0 
1502.26 0.0064042 -0.0104271 -0.0104271 0 2.68882e-17 0 7.35507e-11 -4.44119 -4.44119 0 5.89406e-15 0 1.42482e-11 0 0 
1502.31 0.0064042 -0.0104271 -0.0104271 0 2.68882e-17 0 7.35507e-11 -4.44119 -4.44119 0 5.89406e-15 0 1.45957e-11 0 0 
1502.37 0.0064042 -0.0104271 -0.0104271 0 2.68882e-17 0 7.35603e-11 -4.44119 -4.44119 0 5.89406e-15 0 1.49432e-11 0 0 
1502.42 0.0064042 -0.0104271 -0.0104271 0 2.68882e-17 0 7.35509e-11 -4.44119 -4.44119 0 5.89406e-15 0 1.52907e-11 0 0 
1502.48 0.0064042 -0.0104271 -0.0104271 0 2.68882e-17 0 7.35414e-11 -4.44119 -4.44119 0 5.89406e-15 0 1.56382e-11 0 0 
1502.53 0.0064042 -0.0104271 -0.0104271 0 2.68882e-17 0 7.35507e-11 -4.44119 -4.44119 0 5.89406e-15 0 1.59857e-11 0 0 
1502.59 0.0064042 -0.0104271 -0.0104271 0 2.68882e-17 0 7.35414e-11 -4.44119 -4.44119 0 5.89406e-15 0 1.63333e-11 0 0 
1502.64 0.0064042 -0.0104271 -0.0104271 0 2.68882e-17 0 7.35414e-11 -4.44119 -4.44119 0 5.89406e-15 0 1.66808e-11 0 0 
1502.7 0.0064042 -0.0104271 -0.0104271 0 2.68882e-17 0 7.35507e-11 -4.44119 -4.44119 0 5.89406e-15 0 1.70283e-11 0 0 
1502.75 0.0064042 -0.0104271 -0.0104271 0 2.68882e-17 0 7.35318e-11 -4.44119 -4.44119 0 5.89406e-15 0 1.73758e-11 0 0 
1502.81 0.0064042 -0.0104271 -0.0104271 0 2.68882e-17 0 7.35318e-11 -4.44119 -4.44119 0 5.89406e-15 0 1.77233e-11 0 0 
1502.86 0.0064042 -0.0104271 -0.0104271 0 2.68882e-17 0 7.35507e-11 -4.44119 -4.44119 0 5.89406e-15 0 1.80708e-11 0 0 
1502.92 0.0064042 -0.0104271 -0.0104271 0 2.68882e-17 0 7.35507e-11 -4.44119 -4.44119 0 5.89406e-15 0 1.84183e-11 0 0 
1502.97 0.0064042 -0.0104271 -0.0104271 0 2.68882e-17 0 7.35414e-11 -4.44119 -4.44119 0 5.89406e-15 0 1.87659e-11 0 0 
1503.03 0.0064042 -0.0104271 -0.0104271 0 2.68882e-17 0 7.35225e-11 -4.44119 -4.44119 0 5.89406e-15 0 1.91134e-11 0 0 
1503.08 0.0064042 -0.0104271 -0.0104271 0 2.68882e-17 0 7.35036e-11 -4.44119 -4.44119 0 5.89406e-15 0 1.94609e-11 0 0 
1503.14 0.0064042 -0.0104271 -0.0104271 0 2.68882e-17 0 7.35036e-11 -4.44119 -4.44119 0 5.89406e-15 0 1.98084e-11 0 0 
1503.19 0.0064042 -0.0104271 -0.0104271 0 2.68882e-17 0 7.35225e-11 -4.44119 -4.44119 0 5.89406e-15 0 2.01559e-11 0 0 
1503.25 0.0064042 -0.0104271 -0.0104271 0 2.68882e-17 0 7.35036e-11 -4.44119 -4.44119 0 5.89406e-15 0 2.05034e-11 0 0 
1503.3 0.0064042 -0.0104271 -0.0104271 0 2.68882e-17 0 7.34848e-11 -4.44119 -4.44119 0 5.89406e-15 0 2.0851e-11 0 0 
1503.36 0.0064042 -0.0104271 -0.0104271 0 2.68882e-17 0 7.35132e-11 -4.44119 -4.44119 0 5.89406e-15 0 2.11985e-11 0 0 
1503.41 0.0064042 -0.0104271 -0.0104271 0 2.68882e-17 0 7.34943e-11 -4.44119 -4.44119 0 5.89406e-15 0 2.1546e-11 0 0 
1503.47 0.0064042 -0.0104271 -0.0104271 0 2.68882e-17 0 7.34566e-11 -4.44119 -4.44119 0 5.89406e-15 0 2.18935e-11 0 0 
1503.52 0.0064042 -0.0104271 -0.0104271 0 2.68882e-17 0 7.34659e-11 -4.44119 -4.44119 0 5.89406e-15 0 2.2241e-11 0 0 
1503.58 0.0064042 -0.0104271 -0.0104271 0 2.68882e-17 0 7.34659e-11 -4.44119 -4.44119 0 5.89406e-15 0 2.25885e-11 0 0 
1503.63 0.0064042 -0.0104271 -0.0104271 0 2.68882e-17 0 7.34282e-11 -4.44119 -4.44119 0 5.89406e-15 0 2.29361e-11 0 0 
1503.69 0.0064042 -0.0104271 -0.0104271 0 2.68882e-17 0 7.34282e-11 -4.44119 -4.44119 0 5.89406e-15 0 2.32836e-11 0 0 
1503.74 0.0064042 -0.0104271 -0.0104271 0 2.68882e-17 0 7.34377e-11 -4.44119 -4.44119 0 5.89406e-15 0 2.36311e-11 0 0 
1503.8 0.0064042 -0.0104271 -0.0104271 0 2.68882e-17 0 7.34e-11 -4.44119 -4.44119 0 5.89406e-15 0 2.39786e-11 0 0 
1503.85 0.0064042 -0.0104271 -0.0104271 0 2.68882e-17 0 7.34093e-11 -4.44119 -4.44119 0 5.89406e-15 0 2.43261e-11 0 0 
1503.91 0.0064042 -0.0104271 -0.0104271 0 2.68882e-17 0 7.34186e-11 -4.44119 -4.44119 0 5.89406e-15 0 2.46736e-11 0 0 
1503.96 0.0064042 -0.0104271 -0.0104271 0 2.68882e-17 0 7.33904e-11 -4.44119 -4.44119 0 5.89406e-15 0 2.50212e-11 0 0 
1504.02 0.0064042 -0.0104271 -0.0104271 0 2.68882e-17 0 7.33715e-11 -4.44119 -4.44119 0 5.89406e-15 0 2.53687e-11 0 0 
1504.07 0.0064042 -0.0104271 -0.0104271 0 2.68882e-17 0 7.33809e-11 -4.44119 -4.44119 0 5.89406e-15 0 2.57162e-11 0 0 
1504.13 0.0064042 -0.0104271 -0.0104271 0 2.68882e-17 0 7.33713e-11 -4.44119 -4.44119 0 5.89406e-15 0 2.60637e-11 0 0 
1504.19 0.0064042 -0.0104271 -0.0104271 0 2.68882e-17 0 7.33336e-11 -4.44119 -4.44119 0 5.89406e-15 0 2.64112e-11 0 0 
1504.24 0.0064042 -0.0104271 -0.0104271 0 2.68882e-17 0 7.33147e-11 -4.44119 -4.44119 0 5.89406e-15 0 2.67587e-11 0 0 
1504.3 0.0064042 -0.0104271 -0.0104271 0 2.68882e-17 0 7.33147e-11 -4.44119 -4.44119 0 5.89406e-15 0 2.71062e-11 0 0 
1504.35 0.0064042 -0.0104271 -0.0104271 0 2.68882e-17 0 7.33242e-11 -4.44119 -4.44119 0 5.89406e-15 0 2.74538e-11 0 0 
1504.41 0.0064042 -0.0104271 -0.0104271 0 2.68882e-17 0 7.33242e-11 -4.44119 -4.44119 0 5.89406e-15 0 2.78013e-11 0 0 
1504.46 0.0064042 -0.0104271 -0.0104271 0 2.68882e-17 0 7.33242e-11 -4.44119 -4.44119 0 5.89406e-15 0 2.81488e-11 0 0 
1504.52 0.0064042 -0.0104271 -0.0104271 0 2.68882e-17 0 7.33431e-11 -4.44119 -4.44119 0 5.89406e-15 0 2.84963e-11 0 0 
1504.57 0.0064042 -0.0104271 -0.0104271 0 2.68882e-17 0 7.33431e-11 -4.44119 -4.44119 0 5.89406e-15 0 2.88438e-11 0 0 
1504.63 0.0064042 -0.0104271 -0.0104271 0 2.68882e-17 0 7.33431e-11 -4.44119 -4.44119 0 5.89406e-15 0 2.91913e-11 0 0 
1504.68 0.0064042 -0.0104271 -0.0104271 0 2.68882e-17 0 7.33431e-11 -4.44119 -4.44119 0 5.89406e-15 0 2.95389e-11 0 0 
1504.74 0.0064042 -0.0104271 -0.0104271 0 2.68882e-17 0 7.33431e-11 -4.44119 -4.44119 0 5.89406e-15 0 2.98864e-11 0 0 
1504.79 0.0064042 -0.0104271 -0.0104271 0 2.68882e-17 0 7.33809e-11 -4.44119 -4.44119 0 5.89406e-15 0 3.02339e-11 0 0 
1504.85 0.0064042 -0.0104271 -0.0104271 0 2.68882e-17 0 7.33997e-11 -4.44119 -4.44119 0 5.89406e-15 0 3.05814e-11 0 0 
1504.9 0.0064042 -0.0104271 -0.0104271 0 2.68882e-17 0 7.33809e-11 -4.44119 -4.44119 0 5.89406e-15 0 3.09289e-11 0 0 
1504.96 0.0064042 -0.0104271 -0.0104271 0 2.68882e-17 0 7.3362e-11 -4.44119 -4.44119 0 5.89406e-15 0 3.12764e-11 0 0 
1505.01 0.0064042 -0.0104271 -0.0104271 0 2.68882e-17 0 7.3362e-11 -4.44119 -4.44119 0 5.89406e-15 0 3.1624e-11 0 0 
1505.07 0.0064042 -0.0104271 -0.0104271 0 2.68882e-17 0 7.33431e-11 -4.44119 -4.44119 0 5.89406e-15 0 3.19715e-11 0 0 
1505.12 0.0064042 -0.0104271 -0.0104271 0 2.68882e-17 0 7.33242e-11 -4.44119 -4.44119 0 5.89406e-15 0 3.2319e-11 0 0 
1505.18 0.0064042 -0.0104271 -0.0104271 0 2.68882e-17 0 7.33054e-11 -4.44119 -4.44119 0 5.89406e-15 0 3.26665e-11 0 0 
1505.23 0.0064042 -0.0104271 -0.0104271 0 2.68882e-17 0 7.33054e-11 -4.44119 -4.44119 0 5.89406e-15 0 3.3014e-11 0 0 
1505.29 0.0064042 -0.0104271 -0.0104271 0 2.68882e-17 0 7.33431e-11 -4.44119 -4.44119 0 5.89406e-15 0 3.33615e-11 0 0 
1505.34 0.0064042 -0.0104271 -0.0104271 0 2.68882e-17 0 7.33809e-11 -4.44119 -4.44119 0 5.89406e-15 0 3.37091e-11 0 0 
1505.4 0.0064042 -0.0104271 -0.0104271 0 2.68882e-17 0 7.33431e-11 -4.44119 -4.44119 0 5.89406e-15 0 3.40566e-11 0 0 
1505.45 0.0064042 -0.0104271 -0.0104271 0 2.68882e-17 0 7.33054e-11 -4.44119 -4.44119 0 5.89406e-15 0 3.44041e-11 0 0 
1505.51 0.0064042 -0.0104271 -0.0104271 0 2.68882e-17 0 7.33242e-11 -4.44119 -4.44119 0 5.89406e-15 0 3.47516e-11 0 0 
1505.56 0.0064042 -0.0104271 -0.0104271 0 2.68882e-17 0 7.33242e-11 -4.44119 -4.44119 0 5.89406e-15 0 3.50991e-11 0 0 
1505.62 0.0064042 -0.0104271 -0.0104271 0 2.68882e-17 0 7.33242e-11 -4.44119 -4.44119 0 5.89406e-15 0 3.54466e-11 0 0 
1505.67 0.0064042 -0.0104271 -0.0104271 0 2.68882e-17 0 7.33054e-11 -4.44119 -4.44119 0 5.89406e-15 0 3.57941e-11 0 0 
1505.73 0.0064042 -0.0104271 -0.0104271 0 2.68882e-17 0 7.32676e-11 -4.44119 -4.44119 0 5.89406e-15 0 3.61417e-11 0 0 
1505.78 0.0064042 -0.0104271 -0.0104271 0 2.68882e-17 0 7.32676e-11 -4.44119 -4.44119 0 5.89406e-15 0 3.64892e-11 0 0 
1505.84 0.0064042 -0.0104271 -0.0104271 0 2.68882e-17 0 7.32865e-11 -4.44119 -4.44119 0 5.89406e-15 0 3.68367e-11 0 0 
1505.89 0.0064042 -0.0104271 -0.0104271 0 2.68882e-17 0 7.32865e-11 -4.44119 -4.44119 0 5.89406e-15 0 3.71842e-11 0 0 
1505.95 0.0064042 -0.0104271 -0.0104271 0 2.68882e-17 0 7.33054e-11 -4.44119 -4.44119 0 5.89406e-15 0 3.75317e-11 0 0 
1506 0.0064042 -0.0104271 -0.0104271 0 2.68882e-17 0 7.33242e-11 -4.44119 -4.44119 0 5.89406e-15 0 3.78792e-11 0 0 
1506.06 0.0064042 -0.0104271 -0.0104271 0 2.68882e-17 0 7.33242e-11 -4.44119 -4.44119 0 5.89406e-15 0 3.82268e-11 0 0 
1506.11 0.0064042 -0.0104271 -0.0104271 0 2.68882e-17 0 7.33054e-11 -4.44119 -4.44119 0 5.89406e-15 0 3.85743e-11 0 0 
1506.17 0.0064042 -0.0104271 -0.0104271 0 2.68882e-17 0 7.32865e-11 -4.44119 -4.44119 0 5.89406e-15 0 3.89218e-11 0 0 
1506.22 0.0064042 -0.0104271 -0.0104271 0 2.68882e-17 0 7.32676e-11 -4.44119 -4.44119 0 5.89406e-15 0 3.92693e-11 0 0 
1506.28 0.0064042 -0.0104271 -0.0104271 0 2.68882e-17 0 7.32487e-11 -4.44119 -4.44119 0 5.89406e-15 0 3.96168e-11 0 0 
1506.33 0.0064042 -0.0104271 -0.0104271 0 2.68882e-17 0 7.32487e-11 -4.44119 -4.44119 0 5.89406e-15 0 3.99643e-11 0 0 
1506.39 0.0064042 -0.0104271 -0.0104271 0 2.68882e-17 0 7.32487e-11 -4.44119 -4.44119 0 5.89406e-15 0 4.03119e-11 0 0 
1506.44 0.0064042 -0.0104271 -0.0104271 0 2.68882e-17 0 7.32676e-11 -4.44119 -4.44119 0 5.89406e-15 0 4.06594e-11 0 0 
1506.5 0.0064042 -0.0104271 -0.0104271 0 2.68882e-17 0 7.32676e-11 -4.44119 -4.44119 0 5.89406e-15 0 4.10069e-11 0 0 
1506.55 0.0064042 -0.0104271 -0.0104271 0 2.68882e-17 0 7.32676e-11 -4.44119 -4.44119 0 5.89406e-15 0 4.13544e-11 0 0 
1506.61 0.0064042 -0.0104271 -0.0104271 0 2.68882e-17 0 7.33242e-11 -4.44119 -4.44119 0 5.89406e-15 0 4.17019e-11 0 0 
1506.66 0.0064042 -0.0104271 -0.0104271 0 2.68882e-17 0 7.33431e-11 -4.44119 -4.44119 0 5.89406e-15 0 4.20494e-11 0 0 
1506.72 0.0064042 -0.0104271 -0.0104271 0 2.68882e-17 0 7.33054e-11 -4.44119 -4.44119 0 5.89406e-15 0 4.2397e-11 0 0 
1506.77 0.0064042 -0.0104271 -0.0104271 0 2.68882e-17 0 7.33242e-11 -4.44119 -4.44119 0 5.89406e-15 0 4.27445e-11 0 0 
1506.83 0.0064042 -0.0104271 -0.0104271 0 2.68882e-17 0 7.3362e-11 -4.44119 -4.44119 0 5.89406e-15 0 4.3092e-11 0 0 
1506.88 0.0064042 -0.0104271 -0.0104271 0 2.68882e-17 0 7.33431e-11 -4.44119 -4.44119 0 5.89406e-15 0 4.34395e-11 0 0 
1506.94 0.0064042 -0.0104271 -0.0104271 0 2.68882e-17 0 7.3362e-11 -4.44119 -4.44119 0 5.89406e-15 0 4.3787e-11 0 0 
1506.99 0.0064042 -0.0104271 -0.0104271 0 2.68882e-17 0 7.3362e-11 -4.44119 -4.44119 0 5.89406e-15 0 4.41345e-11 0 0 
1507.05 0.0064042 -0.0104271 -0.0104271 0 2.68882e-17 0 7.32865e-11 -4.44119 -4.44119 0 5.89406e-15 0 4.4482e-11 0 0 
1507.1 0.0064042 -0.0104271 -0.0104271 0 2.68882e-17 0 7.33431e-11 -4.44119 -4.44119 0 5.89406e-15 0 4.48296e-11 0 0 
1507.16 0.0064042 -0.0104271 -0.0104271 0 2.68882e-17 0 7.34186e-11 -4.44119 -4.44119 0 5.89406e-15 0 4.51771e-11 0 0 
1507.21 0.0064042 -0.0104271 -0.0104271 0 2.68882e-17 0 7.34186e-11 -4.44119 -4.44119 0 5.89406e-15 0 4.55246e-11 0 0 
1507.27 0.0064042 -0.0104271 -0.0104271 0 2.68882e-17 0 7.34375e-11 -4.44119 -4.44119 0 5.89406e-15 0 4.58721e-11 0 0 
1507.32 0.0064042 -0.0104271 -0.0104271 0 2.68882e-17 0 7.34752e-11 -4.44119 -4.44119 0 5.89406e-15 0 4.62196e-11 0 0 
1507.38 0.0064042 -0.0104271 -0.0104271 0 2.68882e-17 0 7.35318e-11 -4.44119 -4.44119 0 5.89406e-15 0 4.65671e-11 0 0 
1507.43 0.0064042 -0.0104271 -0.0104271 0 2.68882e-17 0 7.35318e-11 -4.44119 -4.44119 0 5.89406e-15 0 4.69147e-11 0 0 
1507.49 0.0064042 -0.0104271 -0.0104271 0 2.68882e-17 0 7.35507e-11 -4.44119 -4.44119 0 5.89406e-15 0 4.72622e-11 0 0 
1507.54 0.0064042 -0.0104271 -0.0104271 0 2.68882e-17 0 7.36073e-11 -4.44119 -4.44119 0 5.89406e-15 0 4.76097e-11 0 0 
1507.6 0.0064042 -0.0104271 -0.0104271 0 2.68882e-17 0 7.36642e-11 -4.44119 -4.44119 0 5.89406e-15 0 4.79572e-11 0 0 
1507.65 0.0064042 -0.0104271 -0.0104271 0 2.68882e-17 0 7.37399e-11 -4.44119 -4.44119 0 5.89406e-15 0 4.83047e-11 0 0 
1507.71 0.0064042 -0.0104271 -0.0104271 0 2.68882e-17 0 7.37208e-11 -4.44119 -4.44119 0 5.89406e-15 0 4.86522e-11 0 0 
1507.76 0.0064042 -0.0104271 -0.0104271 0 2.68882e-17 0 7.36831e-11 -4.44119 -4.44119 0 5.89406e-15 0 4.89998e-11 0 0 
1507.82 0.0064042 -0.0104271 -0.0104271 0 2.68882e-17 0 7.37022e-11 -4.44119 -4.44119 0 5.89406e-15 0 4.93473e-11 0 0 
1507.87 0.0064042 -0.0104271 -0.0104271 0 2.68882e-17 0 7.36831e-11 -4.44119 -4.44119 0 5.89406e-15 0 4.96948e-11 0 0 
1507.93 0.0064042 -0.0104271 -0.0104271 0 2.68882e-17 0 7.36262e-11 -4.44119 -4.44119 0 5.89406e-15 0 5.00423e-11 0 0 
1507.98 0.0064042 -0.0104271 -0.0104271 0 2.68882e-17 0 7.35696e-11 -4.44119 -4.44119 0 5.89406e-15 0 5.03898e-11 0 0 
1508.04 0.0064042 -0.0104271 -0.0104271 0 2.68882e-17 0 7.36073e-11 -4.44119 -4.44119 0 5.89406e-15 0 5.07373e-11 0 0 
1508.09 0.0064042 -0.0104271 -0.0104271 0 2.68882e-17 0 7.36451e-11 -4.44119 -4.44119 0 5.89406e-15 0 5.10849e-11 0 0 
1508.15 0.0064042 -0.0104271 -0.0104271 0 2.68882e-17 0 7.36073e-11 -4.44119 -4.44119 0 5.89406e-15 0 5.14324e-11 0 0 
1508.2 0.0064042 -0.0104271 -0.0104271 0 2.68882e-17 0 7.36453e-11 -4.44119 -4.44119 0 5.89406e-15 0 5.17799e-11 0 0 
1508.26 0.0064042 -0.0104271 -0.0104271 0 2.68882e-17 0 7.36453e-11 -4.44119 -4.44119 0 5.89406e-15 0 5.21274e-11 0 0 
1508.31 0.0064042 -0.0104271 -0.0104271 0 2.68882e-17 0 7.36262e-11 -4.44119 -4.44119 0 5.89406e-15 0 5.24749e-11 0 0 
1508.37 0.0064042 -0.0104271 -0.0104271 0 2.68882e-17 0 7.3664e-11 -4.44119 -4.44119 0 5.89406e-15 0 5.28224e-11 0 0 
1508.43 0.0064042 -0.0104271 -0.0104271 0 2.68882e-17 0 7.37208e-11 -4.44119 -4.44119 0 5.89406e-15 0 5.31699e-11 0 0 
1508.48 0.0064042 -0.0104271 -0.0104271 0 2.68882e-17 0 7.37777e-11 -4.44119 -4.44119 0 5.89406e-15 0 5.35175e-11 0 0 
1508.54 0.0064042 -0.0104271 -0.0104271 0 2.68882e-17 0 7.37588e-11 -4.44119 -4.44119 0 5.89406e-15 0 5.3865e-11 0 0 
1508.59 0.0064042 -0.0104271 -0.0104271 0 2.68882e-17 0 7.37399e-11 -4.44119 -4.44119 0 5.89406e-15 0 5.42125e-11 0 0 
1508.65 0.0064042 -0.0104271 -0.0104271 0 2.68882e-17 0 7.37588e-11 -4.44119 -4.44119 0 5.89406e-15 0 5.456e-11 0 0 
1508.7 0.0064042 -0.0104271 -0.0104271 0 2.68882e-17 0 7.37399e-11 -4.44119 -4.44119 0 5.89406e-15 0 5.49075e-11 0 0 
1508.76 0.0064042 -0.0104271 -0.0104271 0 2.68882e-17 0 7.36831e-11 -4.44119 -4.44119 0 5.89406e-15 0 5.5255e-11 0 0 
1508.81 0.0064042 -0.0104271 -0.0104271 0 2.68882e-17 0 7.37019e-11 -4.44119 -4.44119 0 5.89406e-15 0 5.56026e-11 0 0 
1508.87 0.0064042 -0.0104271 -0.0104271 0 2.68882e-17 0 7.37399e-11 -4.44119 -4.44119 0 5.89406e-15 0 5.59501e-11 0 0 
1508.92 0.0064042 -0.0104271 -0.0104271 0 2.68882e-17 0 7.37777e-11 -4.44119 -4.44119 0 5.89406e-15 0 5.62976e-11 0 0 
1508.98 0.0064042 -0.0104271 -0.0104271 0 2.68882e-17 0 7.38154e-11 -4.44119 -4.44119 0 5.89406e-15 0 5.66451e-11 0 0 
1509.03 0.0064042 -0.0104271 -0.0104271 0 2.68882e-17 0 7.38531e-11 -4.44119 -4.44119 0 5.89406e-15 0 5.69926e-11 0 0 
1509.09 0.0064042 -0.0104271 -0.0104271 0 2.68882e-17 0 7.37774e-11 -4.44119 -4.44119 0 5.89406e-15 0 5.73401e-11 0 0 
1509.14 0.0064042 -0.0104271 -0.0104271 0 2.68882e-17 0 7.37397e-11 -4.44119 -4.44119 0 5.89406e-15 0 5.76877e-11 0 0 
1509.2 0.0064042 -0.0104271 -0.0104271 0 2.68882e-17 0 7.38531e-11 -4.44119 -4.44119 0 5.89406e-15 0 5.80352e-11 0 0 
1509.25 0.0064042 -0.0104271 -0.0104271 0 2.68882e-17 0 7.38909e-11 -4.44119 -4.44119 0 5.89406e-15 0 5.83827e-11 0 0 
1509.31 0.0064042 -0.0104271 -0.0104271 0 2.68882e-17 0 7.38531e-11 -4.44119 -4.44119 0 5.89406e-15 0 5.87302e-11 0 0 
1509.36 0.0064042 -0.0104271 -0.0104271 0 2.68882e-17 0 7.38154e-11 -4.44119 -4.44119 0 5.89406e-15 0 5.90777e-11 0 0 
1509.42 0.0064042 -0.0104271 -0.0104271 0 2.68882e-17 0 7.38531e-11 -4.44119 -4.44119 0 5.89406e-15 0 5.94252e-11 0 0 
1509.47 0.0064042 -0.0104271 -0.0104271 0 2.68882e-17 0 7.38531e-11 -4.44119 -4.44119 0 5.89406e-15 0 5.97728e-11 0 0 
1509.53 0.0064042 -0.0104271 -0.0104271 0 2.68882e-17 0 7.38909e-11 -4.44119 -4.44119 0 5.89406e-15 0 6.01203e-11 0 0 
1509.58 0.0064042 -0.0104271 -0.0104271 0 2.68882e-17 0 7.38531e-11 -4.44119 -4.44119 0 5.89406e-15 0 6.04678e-11 0 0 
1509.64 0.0064042 -0.0104271 -0.0104271 0 2.68882e-17 0 7.38154e-11 -4.44119 -4.44119 0 5.89406e-15 0 6.08153e-11 0 0 
1509.69 0.0064042 -0.0104271 -0.0104271 0 2.68882e-17 0 7.39286e-11 -4.44119 -4.44119 0 5.89406e-15 0 6.11628e-11 0 0 
1509.75 0.0064042 -0.0104271 -0.0104271 0 2.68882e-17 0 7.38909e-11 -4.44119 -4.44119 0 5.89406e-15 0 6.15103e-11 0 0 
1509.8 0.0064042 -0.0104271 -0.0104271 0 2.68882e-17 0 7.38531e-11 -4.44119 -4.44119 0 5.89406e-15 0 6.18579e-11 0 0 
1509.86 0.0064042 -0.0104271 -0.0104271 0 2.68882e-17 0 7.39286e-11 -4.44119 -4.44119 0 5.89406e-15 0 6.22054e-11 0 0 
1509.91 0.0064042 -0.0104271 -0.0104271 0 2.68882e-17 0 7.39286e-11 -4.44119 -4.44119 0 5.89406e-15 0 6.25529e-11 0 0 
1509.97 0.0064042 -0.0104271 -0.0104271 0 2.68882e-17 0 7.39286e-11 -4.44119 -4.44119 0 5.89406e-15 0 6.29004e-11 0 0 
1510.02 0.0064042 -0.0104271 -0.0104271 0 2.68882e-17 0 7.39286e-11 -4.44119 -4.44119 0 5.89406e-15 0 6.32479e-11 0 0 
1510.08 0.0064042 -0.0104271 -0.0104271 0 2.68882e-17 0 7.38909e-11 -4.44119 -4.44119 0 5.89406e-15 0 6.35954e-11 0 0 
1510.13 0.0064042 -0.0104271 -0.0104271 0 2.68882e-17 0 7.39664e-11 -4.44119 -4.44119 0 5.89406e-15 0 6.39429e-11 0 0 
1510.19 0.0064042 -0.0104271 -0.0104271 0 2.68882e-17 0 7.41174e-11 -4.44119 -4.44119 0 5.89406e-15 0 6.42905e-11 0 0 
1510.24 0.0064042 -0.0104271 -0.0104271 0 2.68882e-17 0 7.41174e-11 -4.44119 -4.44119 0 5.89406e-15 0 6.4638e-11 0 0 
1510.3 0.0064042 -0.0104271 -0.0104271 0 2.68882e-17 0 7.40796e-11 -4.44119 -4.44119 0 5.89406e-15 0 6.49855e-11 0 0 
1510.35 0.0064042 -0.0104271 -0.0104271 0 2.68882e-17 0 7.40796e-11 -4.44119 -4.44119 0 5.89406e-15 0 6.5333e-11 0 0 
1510.41 0.0064042 -0.0104271 -0.0104271 0 2.68882e-17 0 7.40041e-11 -4.44119 -4.44119 0 5.89406e-15 0 6.56805e-11 0 0 
1510.46 0.0064042 -0.0104271 -0.0104271 0 2.68882e-17 0 7.40796e-11 -4.44119 -4.44119 0 5.89406e-15 0 6.6028e-11 0 0 
1510.52 0.0064042 -0.0104271 -0.0104271 0 2.68882e-17 0 7.41174e-11 -4.44119 -4.44119 0 5.89406e-15 0 6.63756e-11 0 0 
1510.57 0.0064042 -0.0104271 -0.0104271 0 2.68882e-17 0 7.40419e-11 -4.44119 -4.44119 0 5.89406e-15 0 6.67231e-11 0 0 
1510.63 0.0064042 -0.0104271 -0.0104271 0 2.68882e-17 0 7.41174e-11 -4.44119 -4.44119 0 5.89406e-15 0 6.70706e-11 0 0 
1510.68 0.0064042 -0.0104271 -0.0104271 0 2.68882e-17 0 7.41174e-11 -4.44119 -4.44119 0 5.89406e-15 0 6.74181e-11 0 0 
1510.74 0.0064042 -0.0104271 -0.0104271 0 2.68882e-17 0 7.40419e-11 -4.44119 -4.44119 0 5.89406e-15 0 6.77656e-11 0 0 
1510.79 0.0064042 -0.0104271 -0.0104271 0 2.68882e-17 0 7.41551e-11 -4.44119 -4.44119 0 5.89406e-15 0 6.81131e-11 0 0 
1510.85 0.0064042 -0.0104271 -0.0104271 0 2.68882e-17 0 7.42306e-11 -4.44119 -4.44119 0 5.89406e-15 0 6.84607e-11 0 0 
1510.9 0.0064042 -0.0104271 -0.0104271 0 2.68882e-17 0 7.41929e-11 -4.44119 -4.44119 0 5.89406e-15 0 6.88082e-11 0 0 
1510.96 0.0064042 -0.0104271 -0.0104271 0 2.68882e-17 0 7.41174e-11 -4.44119 -4.44119 0 5.89406e-15 0 6.91557e-11 0 0 
1511.01 0.0064042 -0.0104271 -0.0104271 0 2.68882e-17 0 7.40796e-11 -4.44119 -4.44119 0 5.89406e-15 0 6.95032e-11 0 0 
1511.07 0.0064042 -0.0104271 -0.0104271 0 2.68882e-17 0 7.41551e-11 -4.44119 -4.44119 0 5.89406e-15 0 6.98507e-11 0 0 
1511.12 0.0064042 -0.0104271 -0.0104271 0 2.68882e-17 0 7.41551e-11 -4.44119 -4.44119 0 5.89406e-15 0 7.01982e-11 0 0 
1511.18 0.0064042 -0.0104271 -0.0104271 0 2.68882e-17 0 7.41551e-11 -4.44119 -4.44119 0 5.89406e-15 0 7.05458e-11 0 0 
1511.23 0.0064042 -0.0104271 -0.0104271 0 2.68882e-17 0 7.41929e-11 -4.44119 -4.44119 0 5.89406e-15 0 7.08933e-11 0 0 
1511.29 0.0064042 -0.0104271 -0.0104271 0 2.68882e-17 0 7.41174e-11 -4.44119 -4.44119 0 5.89406e-15 0 7.12408e-11 0 0 
1511.34 0.0064042 -0.0104271 -0.0104271 0 2.68882e-17 0 7.41174e-11 -4.44119 -4.44119 0 5.89406e-15 0 7.15883e-11 0 0 
1511.4 0.0064042 -0.0104271 -0.0104271 0 2.68882e-17 0 7.41551e-11 -4.44119 -4.44119 0 5.89406e-15 0 7.19358e-11 0 0 
1511.45 0.0064042 -0.0104271 -0.0104271 0 2.68882e-17 0 7.41929e-11 -4.44119 -4.44119 0 5.89406e-15 0 7.22833e-11 0 0 
1511.51 0.0064042 -0.0104271 -0.0104271 0 2.68882e-17 0 7.42306e-11 -4.44119 -4.44119 0 5.89406e-15 0 7.26308e-11 0 0 
1511.56 0.0064042 -0.0104271 -0.0104271 0 2.68882e-17 0 7.42306e-11 -4.44119 -4.44119 0 5.89406e-15 0 7.29784e-11 0 0 
1511.62 0.0064042 -0.0104271 -0.0104271 0 2.68882e-17 0 7.42306e-11 -4.44119 -4.44119 0 5.89406e-15 0 7.33259e-11 0 0 
1511.67 0.0064042 -0.0104271 -0.0104271 0 2.68882e-17 0 7.41929e-11 -4.44119 -4.44119 0 5.89406e-15 0 7.36734e-11 0 0 
1511.73 0.0064042 -0.0104271 -0.0104271 0 2.68882e-17 0 7.42684e-11 -4.44119 -4.44119 0 5.89406e-15 0 7.40209e-11 0 0 
1511.78 0.0064042 -0.0104271 -0.0104271 0 2.68882e-17 0 7.43439e-11 -4.44119 -4.44119 0 5.89406e-15 0 7.43684e-11 0 0 
1511.84 0.0064042 -0.0104271 -0.0104271 0 2.68882e-17 0 7.42306e-11 -4.44119 -4.44119 0 5.89406e-15 0 7.47159e-11 0 0 
1511.89 0.0064042 -0.0104271 -0.0104271 0 2.68882e-17 0 7.41929e-11 -4.44119 -4.44119 0 5.89406e-15 0 7.50635e-11 0 0 
1511.95 0.0064042 -0.0104271 -0.0104271 0 2.68882e-17 0 7.42306e-11 -4.44119 -4.44119 0 5.89406e-15 0 7.5411e-11 0 0 
1512 0.0064042 -0.0104271 -0.0104271 0 2.68882e-17 0 7.42684e-11 -4.44119 -4.44119 0 5.89406e-15 0 7.57585e-11 0 0 
1512.06 0.0064042 -0.0104271 -0.0104271 0 2.68882e-17 0 7.43439e-11 -4.44119 -4.44119 0 5.89406e-15 0 7.6106e-11 0 0 
1512.11 0.0064042 -0.0104271 -0.0104271 0 2.68882e-17 0 7.43439e-11 -4.44119 -4.44119 0 5.89406e-15 0 7.64535e-11 0 0 
1512.17 0.0064042 -0.0104271 -0.0104271 0 2.68882e-17 0 7.43061e-11 -4.44119 -4.44119 0 5.89406e-15 0 7.6801e-11 0 0 
1512.22 0.0064042 -0.0104271 -0.0104271 0 2.68882e-17 0 7.42684e-11 -4.44119 -4.44119 0 5.89406e-15 0 7.71486e-11 0 0 
1512.28 0.0064042 -0.0104271 -0.0104271 0 2.68882e-17 0 7.43061e-11 -4.44119 -4.44119 0 5.89406e-15 0 7.74961e-11 0 0 
1512.33 0.0064042 -0.0104271 -0.0104271 0 2.68882e-17 0 7.43061e-11 -4.44119 -4.44119 0 5.89406e-15 0 7.78436e-11 0 0 
1512.39 0.0064042 -0.0104271 -0.0104271 0 2.68882e-17 0 7.43061e-11 -4.44119 -4.44119 0 5.89406e-15 0 7.81911e-11 0 0 
1512.44 0.0064042 -0.0104271 -0.0104271 0 2.68882e-17 0 7.42684e-11 -4.44119 -4.44119 0 5.89406e-15 0 7.85386e-11 0 0 
1512.5 0.0064042 -0.0104271 -0.0104271 0 2.68882e-17 0 7.42684e-11 -4.44119 -4.44119 0 5.89406e-15 0 7.88861e-11 0 0 
1512.56 0.0064042 -0.0104271 -0.0104271 0 2.68882e-17 0 7.43439e-11 -4.44119 -4.44119 0 5.89406e-15 0 7.92337e-11 0 0 
1512.61 0.0064042 -0.0104271 -0.0104271 0 2.68882e-17 0 7.43818e-11 -4.44119 -4.44119 0 5.89406e-15 0 7.95812e-11 0 0 
1512.67 0.0064042 -0.0104271 -0.0104271 0 2.68882e-17 0 7.43441e-11 -4.44119 -4.44119 0 5.89406e-15 0 7.99287e-11 0 0 
1512.72 0.0064042 -0.0104271 -0.0104271 0 2.68882e-17 0 7.43061e-11 -4.44119 -4.44119 0 5.89406e-15 0 8.02762e-11 0 0 
1512.78 0.0064042 -0.0104271 -0.0104271 0 2.68882e-17 0 7.43439e-11 -4.44119 -4.44119 0 5.89406e-15 0 8.06237e-11 0 0 
1512.83 0.0064042 -0.0104271 -0.0104271 0 2.68882e-17 0 7.42306e-11 -4.44119 -4.44119 0 5.89406e-15 0 8.09712e-11 0 0 
1512.89 0.0064042 -0.0104271 -0.0104271 0 2.68882e-17 0 7.41929e-11 -4.44119 -4.44119 0 5.89406e-15 0 8.13187e-11 0 0 
1512.94 0.0064042 -0.0104271 -0.0104271 0 2.68882e-17 0 7.42684e-11 -4.44119 -4.44119 0 5.89406e-15 0 8.16663e-11 0 0 
1513 0.0064042 -0.0104271 -0.0104271 0 2.68882e-17 0 7.42684e-11 -4.44119 -4.44119 0 5.89406e-15 0 8.20138e-11 0 0 
1513.05 0.0064042 -0.0104271 -0.0104271 0 2.68882e-17 0 7.42306e-11 -4.44119 -4.44119 0 5.89406e-15 0 8.23613e-11 0 0 
1513.11 0.0064042 -0.0104271 -0.0104271 0 2.68882e-17 0 7.43063e-11 -4.44119 -4.44119 0 5.89406e-15 0 8.27088e-11 0 0 
1513.16 0.0064042 -0.0104271 -0.0104271 0 2.68882e-17 0 7.43818e-11 -4.44119 -4.44119 0 5.89406e-15 0 8.30563e-11 0 0 
1513.22 0.0064042 -0.0104271 -0.0104271 0 2.68882e-17 0 7.44196e-11 -4.44119 -4.44119 0 5.89406e-15 0 8.34038e-11 0 0 
1513.27 0.0064042 -0.0104271 -0.0104271 0 2.68882e-17 0 7.43818e-11 -4.44119 -4.44119 0 5.89406e-15 0 8.37514e-11 0 0 
1513.33 0.0064042 -0.0104271 -0.0104271 0 2.68882e-17 0 7.43818e-11 -4.44119 -4.44119 0 5.89406e-15 0 8.40989e-11 0 0 
1513.38 0.0064042 -0.0104271 -0.0104271 0 2.68882e-17 0 7.44953e-11 -4.44119 -4.44119 0 5.89406e-15 0 8.44464e-11 0 0 
1513.44 0.0064042 -0.0104271 -0.0104271 0 2.68882e-17 0 7.4533e-11 -4.44119 -4.44119 0 5.89406e-15 0 8.47939e-11 0 0 
1513.49 0.0064042 -0.0104271 -0.0104271 0 2.68882e-17 0 7.4533e-11 -4.44119 -4.44119 0 5.89406e-15 0 8.51414e-11 0 0 
1513.55 0.0064042 -0.0104271 -0.0104271 0 2.68882e-17 0 7.44953e-11 -4.44119 -4.44119 0 5.89406e-15 0 8.54889e-11 0 0 
1513.6 0.0064042 -0.0104271 -0.0104271 0 2.68882e-17 0 7.44576e-11 -4.44119 -4.44119 0 5.89406e-15 0 8.58365e-11 0 0 
1513.66 0.0064042 -0.0104271 -0.0104271 0 2.68882e-17 0 7.43441e-11 -4.44119 -4.44119 0 5.89406e-15 0 8.6184e-11 0 0 
1513.71 0.0064042 -0.0104271 -0.0104271 0 2.68882e-17 0 7.42684e-11 -4.44119 -4.44119 0 5.89406e-15 0 8.65315e-11 0 0 
1513.77 0.0064042 -0.0104271 -0.0104271 0 2.68882e-17 0 7.41174e-11 -4.44119 -4.44119 0 5.89406e-15 0 8.6879e-11 0 0 
1513.82 0.0064042 -0.0104271 -0.0104271 0 2.68882e-17 0 7.41174e-11 -4.44119 -4.44119 0 5.89406e-15 0 8.72265e-11 0 0 
1513.88 0.0064042 -0.0104271 -0.0104271 0 2.68882e-17 0 7.44196e-11 -4.44119 -4.44119 0 5.89406e-15 0 8.7574e-11 0 0 
1513.93 0.0064042 -0.0104271 -0.0104271 0 2.68882e-17 0 7.4533e-11 -4.44119 -4.44119 0 5.89406e-15 0 8.79216e-11 0 0 
1513.99 0.0064042 -0.0104271 -0.0104271 0 2.68882e-17 0 7.44196e-11 -4.44119 -4.44119 0 5.89406e-15 0 8.82691e-11 0 0 
1514.04 0.0064042 -0.0104271 -0.0104271 0 2.68882e-17 0 7.41929e-11 -4.44119 -4.44119 0 5.89406e-15 0 8.86166e-11 0 0 
1514.1 0.0064042 -0.0104271 -0.0104271 0 2.68882e-17 0 7.40796e-11 -4.44119 -4.44119 0 5.89406e-15 0 8.89641e-11 0 0 
1514.15 0.0064042 -0.0104271 -0.0104271 0 2.68882e-17 0 7.40796e-11 -4.44119 -4.44119 0 5.89406e-15 0 8.93116e-11 0 0 
1514.21 0.0064042 -0.0104271 -0.0104271 0 2.68882e-17 0 7.40041e-11 -4.44119 -4.44119 0 5.89406e-15 0 8.96591e-11 0 0 
1514.26 0.0064042 -0.0104271 -0.0104271 0 2.68882e-17 0 7.39664e-11 -4.44119 -4.44119 0 5.89406e-15 0 9.00066e-11 0 0 
1514.32 0.0064042 -0.0104271 -0.0104271 0 2.68882e-17 0 7.39286e-11 -4.44119 -4.44119 0 5.89406e-15 0 9.03542e-11 0 0 
1514.37 0.0064042 -0.0104271 -0.0104271 0 2.68882e-17 0 7.38531e-11 -4.44119 -4.44119 0 5.89406e-15 0 9.07017e-11 0 0 
1514.43 0.0064042 -0.0104271 -0.0104271 0 2.68882e-17 0 7.38154e-11 -4.44119 -4.44119 0 5.89406e-15 0 9.10492e-11 0 0 
1514.48 0.0064042 -0.0104271 -0.0104271 0 2.68882e-17 0 7.38154e-11 -4.44119 -4.44119 0 5.89406e-15 0 9.13967e-11 0 0 
1514.54 0.0064042 -0.0104271 -0.0104271 0 2.68882e-17 0 7.38154e-11 -4.44119 -4.44119 0 5.89406e-15 0 9.17442e-11 0 0 
1514.59 0.0064042 -0.0104271 -0.0104271 0 2.68882e-17 0 7.38909e-11 -4.44119 -4.44119 0 5.89406e-15 0 9.20917e-11 0 0 
1514.65 0.0064042 -0.0104271 -0.0104271 0 2.68882e-17 0 7.40041e-11 -4.44119 -4.44119 0 5.89406e-15 0 9.24393e-11 0 0 
1514.7 0.0064042 -0.0104271 -0.0104271 0 2.68882e-17 0 7.40419e-11 -4.44119 -4.44119 0 5.89406e-15 0 9.27868e-11 0 0 
1514.76 0.0064042 -0.0104271 -0.0104271 0 2.68882e-17 0 7.39664e-11 -4.44119 -4.44119 0 5.89406e-15 0 9.31343e-11 0 0 
1514.81 0.0064042 -0.0104271 -0.0104271 0 2.68882e-17 0 7.40041e-11 -4.44119 -4.44119 0 5.89406e-15 0 9.34818e-11 0 0 
1514.87 0.0064042 -0.0104271 -0.0104271 0 2.68882e-17 0 7.41551e-11 -4.44119 -4.44119 0 5.89406e-15 0 9.38293e-11 0 0 
1514.92 0.0064042 -0.0104271 -0.0104271 0 2.68882e-17 0 7.40419e-11 -4.44119 -4.44119 0 5.89406e-15 0 9.41768e-11 0 0 
1514.98 0.0064042 -0.0104271 -0.0104271 0 2.68882e-17 0 7.38531e-11 -4.44119 -4.44119 0 5.89406e-15 0 9.45244e-11 0 0 
1515.03 0.0064042 -0.0104271 -0.0104271 0 2.68882e-17 0 7.37777e-11 -4.44119 -4.44119 0 5.89406e-15 0 9.48719e-11 0 0 
1515.09 0.0064042 -0.0104271 -0.0104271 0 2.68882e-17 0 7.37777e-11 -4.44119 -4.44119 0 5.89406e-15 0 9.52194e-11 0 0 
1515.14 0.0064042 -0.0104271 -0.0104271 0 2.68882e-17 0 7.37777e-11 -4.44119 -4.44119 0 5.89406e-15 0 9.55669e-11 0 0 
1515.2 0.0064042 -0.0104271 -0.0104271 0 2.68882e-17 0 7.36264e-11 -4.44119 -4.44119 0 5.89406e-15 0 9.59144e-11 0 0 
1515.25 0.0064042 -0.0104271 -0.0104271 0 2.68882e-17 0 7.3513e-11 -4.44119 -4.44119 0 5.89406e-15 0 9.62619e-11 0 0 
1515.31 0.0064042 -0.0104271 -0.0104271 0 2.68882e-17 0 7.3513e-11 -4.44119 -4.44119 0 5.89406e-15 0 9.66095e-11 0 0 
1515.36 0.0064042 -0.0104271 -0.0104271 0 2.68882e-17 0 7.36642e-11 -4.44119 -4.44119 0 5.89406e-15 0 9.6957e-11 0 0 
1515.42 0.0064042 -0.0104271 -0.0104271 0 2.68882e-17 0 7.37397e-11 -4.44119 -4.44119 0 5.89406e-15 0 9.73045e-11 0 0 
1515.47 0.0064042 -0.0104271 -0.0104271 0 2.68882e-17 0 7.35885e-11 -4.44119 -4.44119 0 5.89406e-15 0 9.7652e-11 0 0 
1515.53 0.0064042 -0.0104271 -0.0104271 0 2.68882e-17 0 7.34752e-11 -4.44119 -4.44119 0 5.89406e-15 0 9.79995e-11 0 0 
1515.58 0.0064042 -0.0104271 -0.0104271 0 2.68882e-17 0 7.34752e-11 -4.44119 -4.44119 0 5.89406e-15 0 9.8347e-11 0 0 
1515.64 0.0064042 -0.0104271 -0.0104271 0 2.68882e-17 0 7.34752e-11 -4.44119 -4.44119 0 5.89406e-15 0 9.86945e-11 0 0 
1515.69 0.0064042 -0.0104271 -0.0104271 0 2.68882e-17 0 7.34375e-11 -4.44119 -4.44119 0 5.89406e-15 0 9.90421e-11 0 0 
1515.75 0.0064042 -0.0104271 -0.0104271 0 2.68882e-17 0 7.3513e-11 -4.44119 -4.44119 0 5.89406e-15 0 9.93896e-11 0 0 
1515.8 0.0064042 -0.0104271 -0.0104271 0 2.68882e-17 0 7.35507e-11 -4.44119 -4.44119 0 5.89406e-15 0 9.97371e-11 0 0 
1515.86 0.0064042 -0.0104271 -0.0104271 0 2.68882e-17 0 7.36264e-11 -4.44119 -4.44119 0 5.89406e-15 0 1.00085e-10 0 0 
1515.91 0.0064042 -0.0104271 -0.0104271 0 2.68882e-17 0 7.37019e-11 -4.44119 -4.44119 0 5.89406e-15 0 1.00432e-10 0 0 
1515.97 0.0064042 -0.0104271 -0.0104271 0 2.68882e-17 0 7.37397e-11 -4.44119 -4.44119 0 5.89406e-15 0 1.0078e-10 0 0 
1516.02 0.0064042 -0.0104271 -0.0104271 0 2.68882e-17 0 7.37397e-11 -4.44119 -4.44119 0 5.89406e-15 0 1.01127e-10 0 0 
1516.08 0.0064042 -0.0104271 -0.0104271 0 2.68882e-17 0 7.37397e-11 -4.44119 -4.44119 0 5.89406e-15 0 1.01475e-10 0 0 
1516.13 0.0064042 -0.0104271 -0.0104271 0 2.68882e-17 0 7.38531e-11 -4.44119 -4.44119 0 5.89406e-15 0 1.01822e-10 0 0 
1516.19 0.0064042 -0.0104271 -0.0104271 0 2.68882e-17 0 7.39286e-11 -4.44119 -4.44119 0 5.89406e-15 0 1.0217e-10 0 0 
1516.24 0.0064042 -0.0104271 -0.0104271 0 2.68882e-17 0 7.39286e-11 -4.44119 -4.44119 0 5.89406e-15 0 1.02517e-10 0 0 
1516.3 0.0064042 -0.0104271 -0.0104271 0 2.68882e-17 0 7.38531e-11 -4.44119 -4.44119 0 5.89406e-15 0 1.02865e-10 0 0 
1516.35 0.0064042 -0.0104271 -0.0104271 0 2.68882e-17 0 7.38909e-11 -4.44119 -4.44119 0 5.89406e-15 0 1.03212e-10 0 0 
1516.41 0.0064042 -0.0104271 -0.0104271 0 2.68882e-17 0 7.40041e-11 -4.44119 -4.44119 0 5.89406e-15 0 1.0356e-10 0 0 
1516.46 0.0064042 -0.0104271 -0.0104271 0 2.68882e-17 0 7.41929e-11 -4.44119 -4.44119 0 5.89406e-15 0 1.03907e-10 0 0 
1516.52 0.0064042 -0.0104271 -0.0104271 0 2.68882e-17 0 7.43439e-11 -4.44119 -4.44119 0 5.89406e-15 0 1.04255e-10 0 0 
1516.57 0.0064042 -0.0104271 -0.0104271 0 2.68882e-17 0 7.43061e-11 -4.44119 -4.44119 0 5.89406e-15 0 1.04602e-10 0 0 
1516.63 0.0064042 -0.0104271 -0.0104271 0 2.68882e-17 0 7.42684e-11 -4.44119 -4.44119 0 5.89406e-15 0 1.0495e-10 0 0 
1516.69 0.0064042 -0.0104271 -0.0104271 0 2.68882e-17 0 7.44196e-11 -4.44119 -4.44119 0 5.89406e-15 0 1.05297e-10 0 0 
1516.74 0.0064042 -0.0104271 -0.0104271 0 2.68882e-17 0 7.44573e-11 -4.44119 -4.44119 0 5.89406e-15 0 1.05645e-10 0 0 
1516.8 0.0064042 -0.0104271 -0.0104271 0 2.68882e-17 0 7.43818e-11 -4.44119 -4.44119 0 5.89406e-15 0 1.05992e-10 0 0 
1516.85 0.0064042 -0.0104271 -0.0104271 0 2.68882e-17 0 7.43818e-11 -4.44119 -4.44119 0 5.89406e-15 0 1.0634e-10 0 0 
1516.91 0.0064042 -0.0104271 -0.0104271 0 2.68882e-17 0 7.42684e-11 -4.44119 -4.44119 0 5.89406e-15 0 1.06687e-10 0 0 
1516.96 0.0064042 -0.0104271 -0.0104271 0 2.68882e-17 0 7.42306e-11 -4.44119 -4.44119 0 5.89406e-15 0 1.07035e-10 0 0 
1517.02 0.0064042 -0.0104271 -0.0104271 0 2.68882e-17 0 7.43441e-11 -4.44119 -4.44119 0 5.89406e-15 0 1.07382e-10 0 0 
1517.07 0.0064042 -0.0104271 -0.0104271 0 2.68882e-17 0 7.44953e-11 -4.44119 -4.44119 0 5.89406e-15 0 1.0773e-10 0 0 
1517.13 0.0064042 -0.0104271 -0.0104271 0 2.68882e-17 0 7.4533e-11 -4.44119 -4.44119 0 5.89406e-15 0 1.08077e-10 0 0 
1517.18 0.0064042 -0.0104271 -0.0104271 0 2.68882e-17 0 7.44953e-11 -4.44119 -4.44119 0 5.89406e-15 0 1.08425e-10 0 0 
1517.24 0.0064042 -0.0104271 -0.0104271 0 2.68882e-17 0 7.4533e-11 -4.44119 -4.44119 0 5.89406e-15 0 1.08773e-10 0 0 
1517.29 0.0064042 -0.0104271 -0.0104271 0 2.68882e-17 0 7.46085e-11 -4.44119 -4.44119 0 5.89406e-15 0 1.0912e-10 0 0 
1517.35 0.0064042 -0.0104271 -0.0104271 0 2.68882e-17 0 7.44573e-11 -4.44119 -4.44119 0 5.89406e-15 0 1.09468e-10 0 0 
1517.4 0.0064042 -0.0104271 -0.0104271 0 2.68882e-17 0 7.42306e-11 -4.44119 -4.44119 0 5.89406e-15 0 1.09815e-10 0 0 
1517.46 0.0064042 -0.0104271 -0.0104271 0 2.68882e-17 0 7.41929e-11 -4.44119 -4.44119 0 5.89406e-15 0 1.10163e-10 0 0 
1517.51 0.0064042 -0.0104271 -0.0104271 0 2.68882e-17 0 7.41929e-11 -4.44119 -4.44119 0 5.89406e-15 0 1.1051e-10 0 0 
1517.57 0.0064042 -0.0104271 -0.0104271 0 2.68882e-17 0 7.42684e-11 -4.44119 -4.44119 0 5.89406e-15 0 1.10858e-10 0 0 
1517.62 0.0064042 -0.0104271 -0.0104271 0 2.68882e-17 0 7.43439e-11 -4.44119 -4.44119 0 5.89406e-15 0 1.11205e-10 0 0 
1517.68 0.0064042 -0.0104271 -0.0104271 0 2.68882e-17 0 7.43439e-11 -4.44119 -4.44119 0 5.89406e-15 0 1.11553e-10 0 0 
1517.73 0.0064042 -0.0104271 -0.0104271 0 2.68882e-17 0 7.44196e-11 -4.44119 -4.44119 0 5.89406e-15 0 1.119e-10 0 0 
1517.79 0.0064042 -0.0104271 -0.0104271 0 2.68882e-17 0 7.44953e-11 -4.44119 -4.44119 0 5.89406e-15 0 1.12248e-10 0 0 
1517.84 0.0064042 -0.0104271 -0.0104271 0 2.68882e-17 0 7.44953e-11 -4.44119 -4.44119 0 5.89406e-15 0 1.12595e-10 0 0 
1517.9 0.0064042 -0.0104271 -0.0104271 0 2.68882e-17 0 7.45708e-11 -4.44119 -4.44119 0 5.89406e-15 0 1.12943e-10 0 0 
1517.95 0.0064042 -0.0104271 -0.0104271 0 2.68882e-17 0 7.46463e-11 -4.44119 -4.44119 0 5.89406e-15 0 1.1329e-10 0 0 
1518.01 0.0064042 -0.0104271 -0.0104271 0 2.68882e-17 0 7.46463e-11 -4.44119 -4.44119 0 5.89406e-15 0 1.13638e-10 0 0 
1518.06 0.0064042 -0.0104271 -0.0104271 0 2.68882e-17 0 7.45708e-11 -4.44119 -4.44119 0 5.89406e-15 0 1.13985e-10 0 0 
1518.12 0.0064042 -0.0104271 -0.0104271 0 2.68882e-17 0 7.46463e-11 -4.44119 -4.44119 0 5.89406e-15 0 1.14333e-10 0 0 
1518.17 0.0064042 -0.0104271 -0.0104271 0 2.68882e-17 0 7.47218e-11 -4.44119 -4.44119 0 5.89406e-15 0 1.1468e-10 0 0 
1518.23 0.0064042 -0.0104271 -0.0104271 0 2.68882e-17 0 7.46463e-11 -4.44119 -4.44119 0 5.89406e-15 0 1.15028e-10 0 0 
1518.28 0.0064042 -0.0104271 -0.0104271 0 2.68882e-17 0 7.45708e-11 -4.44119 -4.44119 0 5.89406e-15 0 1.15375e-10 0 0 
1518.34 0.0064042 -0.0104271 -0.0104271 0 2.68882e-17 0 7.46463e-11 -4.44119 -4.44119 0 5.89406e-15 0 1.15723e-10 0 0 
1518.39 0.0064042 -0.0104271 -0.0104271 0 2.68882e-17 0 7.47973e-11 -4.44119 -4.44119 0 5.89406e-15 0 1.1607e-10 0 0 
1518.45 0.0064042 -0.0104271 -0.0104271 0 2.68882e-17 0 7.48728e-11 -4.44119 -4.44119 0 5.89406e-15 0 1.16418e-10 0 0 
1518.5 0.0064042 -0.0104271 -0.0104271 0 2.68882e-17 0 7.48728e-11 -4.44119 -4.44119 0 5.89406e-15 0 1.16765e-10 0 0 
1518.56 0.0064042 -0.0104271 -0.0104271 0 2.68882e-17 0 7.47973e-11 -4.44119 -4.44119 0 5.89406e-15 0 1.17113e-10 0 0 
1518.61 0.0064042 -0.0104271 -0.0104271 0 2.68882e-17 0 7.48728e-11 -4.44119 -4.44119 0 5.89406e-15 0 1.1746e-10 0 0 
1518.67 0.0064042 -0.0104271 -0.0104271 0 2.68882e-17 0 7.48728e-11 -4.44119 -4.44119 0 5.89406e-15 0 1.17808e-10 0 0 
1518.72 0.0064042 -0.0104271 -0.0104271 0 2.68882e-17 0 7.47973e-11 -4.44119 -4.44119 0 5.89406e-15 0 1.18155e-10 0 0 
1518.78 0.0064042 -0.0104271 -0.0104271 0 2.68882e-17 0 7.46463e-11 -4.44119 -4.44119 0 5.89406e-15 0 1.18503e-10 0 0 
1518.83 0.0064042 -0.0104271 -0.0104271 0 2.68882e-17 0 7.45708e-11 -4.44119 -4.44119 0 5.89406e-15 0 1.1885e-10 0 0 
1518.89 0.0064042 -0.0104271 -0.0104271 0 2.68882e-17 0 7.47218e-11 -4.44119 -4.44119 0 5.89406e-15 0 1.19198e-10 0 0 
1518.94 0.0064042 -0.0104271 -0.0104271 0 2.68882e-17 0 7.47973e-11 -4.44119 -4.44119 0 5.89406e-15 0 1.19546e-10 0 0 
1519 0.0064042 -0.0104271 -0.0104271 0 2.68882e-17 0 7.47218e-11 -4.44119 -4.44119 0 5.89406e-15 0 1.19893e-10 0 0 
1519.05 0.0064042 -0.0104271 -0.0104271 0 2.68882e-17 0 7.46463e-11 -4.44119 -4.44119 0 5.89406e-15 0 1.20241e-10 0 0 
1519.11 0.0064042 -0.0104271 -0.0104271 0 2.68882e-17 0 7.4873e-11 -4.44119 -4.44119 0 5.89406e-15 0 1.20588e-10 0 0 
1519.16 0.0064042 -0.0104271 -0.0104271 0 2.68882e-17 0 7.49485e-11 -4.44119 -4.44119 0 5.89406e-15 0 1.20936e-10 0 0 
1519.22 0.0064042 -0.0104271 -0.0104271 0 2.68882e-17 0 7.47973e-11 -4.44119 -4.44119 0 5.89406e-15 0 1.21283e-10 0 0 
1519.27 0.0064042 -0.0104271 -0.0104271 0 2.68882e-17 0 7.46463e-11 -4.44119 -4.44119 0 5.89406e-15 0 1.21631e-10 0 0 
1519.33 0.0064042 -0.0104271 -0.0104271 0 2.68882e-17 0 7.45708e-11 -4.44119 -4.44119 0 5.89406e-15 0 1.21978e-10 0 0 
1519.38 0.0064042 -0.0104271 -0.0104271 0 2.68882e-17 0 7.45708e-11 -4.44119 -4.44119 0 5.89406e-15 0 1.22326e-10 0 0 
1519.44 0.0064042 -0.0104271 -0.0104271 0 2.68882e-17 0 7.44196e-11 -4.44119 -4.44119 0 5.89406e-15 0 1.22673e-10 0 0 
1519.49 0.0064042 -0.0104271 -0.0104271 0 2.68882e-17 0 7.44196e-11 -4.44119 -4.44119 0 5.89406e-15 0 1.23021e-10 0 0 
1519.55 0.0064042 -0.0104271 -0.0104271 0 2.68882e-17 0 7.45708e-11 -4.44119 -4.44119 0 5.89406e-15 0 1.23368e-10 0 0 
1519.6 0.0064042 -0.0104271 -0.0104271 0 2.68882e-17 0 7.46463e-11 -4.44119 -4.44119 0 5.89406e-15 0 1.23716e-10 0 0 
1519.66 0.0064042 -0.0104271 -0.0104271 0 2.68882e-17 0 7.47218e-11 -4.44119 -4.44119 0 5.89406e-15 0 1.24063e-10 0 0 
1519.71 0.0064042 -0.0104271 -0.0104271 0 2.68882e-17 0 7.47973e-11 -4.44119 -4.44119 0 5.89406e-15 0 1.24411e-10 0 0 
1519.77 0.0064042 -0.0104271 -0.0104271 0 2.68882e-17 0 7.48728e-11 -4.44119 -4.44119 0 5.89406e-15 0 1.24758e-10 0 0 
1519.82 0.0064042 -0.0104271 -0.0104271 0 2.68882e-17 0 7.49483e-11 -4.44119 -4.44119 0 5.89406e-15 0 1.25106e-10 0 0 
1519.88 0.0064042 -0.0104271 -0.0104271 0 2.68882e-17 0 7.5024e-11 -4.44119 -4.44119 0 5.89406e-15 0 1.25453e-10 0 0 
1519.93 0.0064042 -0.0104271 -0.0104271 0 2.68882e-17 0 7.50997e-11 -4.44119 -4.44119 0 5.89406e-15 0 1.25801e-10 0 0 
1519.99 0.0064042 -0.0104271 -0.0104271 0 2.68882e-17 0 7.50997e-11 -4.44119 -4.44119 0 5.89406e-15 0 1.26148e-10 0 0 
1520.04 0.0064042 -0.0104271 -0.0104271 0 2.68882e-17 0 7.50997e-11 -4.44119 -4.44119 0 5.89406e-15 0 1.26496e-10 0 0 
1520.1 0.0064042 -0.0104271 -0.0104271 0 2.68882e-17 0 7.49485e-11 -4.44119 -4.44119 0 5.89406e-15 0 1.26843e-10 0 0 
1520.15 0.0064042 -0.0104271 -0.0104271 0 2.68882e-17 0 7.48728e-11 -4.44119 -4.44119 0 5.89406e-15 0 1.27191e-10 0 0 
1520.21 0.0064042 -0.0104271 -0.0104271 0 2.68882e-17 0 7.49483e-11 -4.44119 -4.44119 0 5.89406e-15 0 1.27538e-10 0 0 
1520.26 0.0064042 -0.0104271 -0.0104271 0 2.68882e-17 0 7.50995e-11 -4.44119 -4.44119 0 5.89406e-15 0 1.27886e-10 0 0 
1520.32 0.0064042 -0.0104271 -0.0104271 0 2.68882e-17 0 7.52507e-11 -4.44119 -4.44119 0 5.89406e-15 0 1.28233e-10 0 0 
1520.37 0.0064042 -0.0104271 -0.0104271 0 2.68882e-17 0 7.52507e-11 -4.44119 -4.44119 0 5.89406e-15 0 1.28581e-10 0 0 
1520.43 0.0064042 -0.0104271 -0.0104271 0 2.68882e-17 0 7.51752e-11 -4.44119 -4.44119 0 5.89406e-15 0 1.28928e-10 0 0 
1520.48 0.0064042 -0.0104271 -0.0104271 0 2.68882e-17 0 7.51752e-11 -4.44119 -4.44119 0 5.89406e-15 0 1.29276e-10 0 0 
1520.54 0.0064042 -0.0104271 -0.0104271 0 2.68882e-17 0 7.53262e-11 -4.44119 -4.44119 0 5.89406e-15 0 1.29623e-10 0 0 
1520.59 0.0064042 -0.0104271 -0.0104271 0 2.68882e-17 0 7.54772e-11 -4.44119 -4.44119 0 5.89406e-15 0 1.29971e-10 0 0 
1520.65 0.0064042 -0.0104271 -0.0104271 0 2.68882e-17 0 7.54772e-11 -4.44119 -4.44119 0 5.89406e-15 0 1.30319e-10 0 0 
1520.7 0.0064042 -0.0104271 -0.0104271 0 2.68882e-17 0 7.53262e-11 -4.44119 -4.44119 0 5.89406e-15 0 1.30666e-10 0 0 
1520.76 0.0064042 -0.0104271 -0.0104271 0 2.68882e-17 0 7.50995e-11 -4.44119 -4.44119 0 5.89406e-15 0 1.31014e-10 0 0 
1520.81 0.0064042 -0.0104271 -0.0104271 0 2.68882e-17 0 7.5024e-11 -4.44119 -4.44119 0 5.89406e-15 0 1.31361e-10 0 0 
1520.87 0.0064042 -0.0104271 -0.0104271 0 2.68882e-17 0 7.50997e-11 -4.44119 -4.44119 0 5.89406e-15 0 1.31709e-10 0 0 
1520.93 0.0064042 -0.0104271 -0.0104271 0 2.68882e-17 0 7.50997e-11 -4.44119 -4.44119 0 5.89406e-15 0 1.32056e-10 0 0 
1520.98 0.0064042 -0.0104271 -0.0104271 0 2.68882e-17 0 7.5024e-11 -4.44119 -4.44119 0 5.89406e-15 0 1.32404e-10 0 0 
1521.04 0.0064042 -0.0104271 -0.0104271 0 2.68882e-17 0 7.5024e-11 -4.44119 -4.44119 0 5.89406e-15 0 1.32751e-10 0 0 
1521.09 0.0064042 -0.0104271 -0.0104271 0 2.68882e-17 0 7.51752e-11 -4.44119 -4.44119 0 5.89406e-15 0 1.33099e-10 0 0 
1521.15 0.0064042 -0.0104271 -0.0104271 0 2.68882e-17 0 7.52507e-11 -4.44119 -4.44119 0 5.89406e-15 0 1.33446e-10 0 0 
1521.2 0.0064042 -0.0104271 -0.0104271 0 2.68882e-17 0 7.54017e-11 -4.44119 -4.44119 0 5.89406e-15 0 1.33794e-10 0 0 
1521.26 0.0064042 -0.0104271 -0.0104271 0 2.68882e-17 0 7.55527e-11 -4.44119 -4.44119 0 5.89406e-15 0 1.34141e-10 0 0 
1521.31 0.0064042 -0.0104271 -0.0104271 0 2.68882e-17 0 7.55527e-11 -4.44119 -4.44119 0 5.89406e-15 0 1.34489e-10 0 0 
1521.37 0.0064042 -0.0104271 -0.0104271 0 2.68882e-17 0 7.54772e-11 -4.44119 -4.44119 0 5.89406e-15 0 1.34836e-10 0 0 
1521.42 0.0064042 -0.0104271 -0.0104271 0 2.68882e-17 0 7.54017e-11 -4.44119 -4.44119 0 5.89406e-15 0 1.35184e-10 0 0 
1521.48 0.0064042 -0.0104271 -0.0104271 0 2.68882e-17 0 7.53262e-11 -4.44119 -4.44119 0 5.89406e-15 0 1.35531e-10 0 0 
1521.53 0.0064042 -0.0104271 -0.0104271 0 2.68882e-17 0 7.53262e-11 -4.44119 -4.44119 0 5.89406e-15 0 1.35879e-10 0 0 
1521.59 0.0064042 -0.0104271 -0.0104271 0 2.68882e-17 0 7.52507e-11 -4.44119 -4.44119 0 5.89406e-15 0 1.36226e-10 0 0 
1521.64 0.0064042 -0.0104271 -0.0104271 0 2.68882e-17 0 7.50997e-11 -4.44119 -4.44119 0 5.89406e-15 0 1.36574e-10 0 0 
1521.7 0.0064042 -0.0104271 -0.0104271 0 2.68882e-17 0 7.51752e-11 -4.44119 -4.44119 0 5.89406e-15 0 1.36921e-10 0 0 
1521.75 0.0064042 -0.0104271 -0.0104271 0 2.68882e-17 0 7.52507e-11 -4.44119 -4.44119 0 5.89406e-15 0 1.37269e-10 0 0 
1521.81 0.0064042 -0.0104271 -0.0104271 0 2.68882e-17 0 7.51752e-11 -4.44119 -4.44119 0 5.89406e-15 0 1.37616e-10 0 0 
1521.86 0.0064042 -0.0104271 -0.0104271 0 2.68882e-17 0 7.5024e-11 -4.44119 -4.44119 0 5.89406e-15 0 1.37964e-10 0 0 
1521.92 0.0064042 -0.0104271 -0.0104271 0 2.68882e-17 0 7.49483e-11 -4.44119 -4.44119 0 5.89406e-15 0 1.38311e-10 0 0 
1521.97 0.0064042 -0.0104271 -0.0104271 0 2.68882e-17 0 7.49483e-11 -4.44119 -4.44119 0 5.89406e-15 0 1.38659e-10 0 0 
1522.03 0.0064042 -0.0104271 -0.0104271 0 2.68882e-17 0 7.49483e-11 -4.44119 -4.44119 0 5.89406e-15 0 1.39006e-10 0 0 
1522.08 0.0064042 -0.0104271 -0.0104271 0 2.68882e-17 0 7.49483e-11 -4.44119 -4.44119 0 5.89406e-15 0 1.39354e-10 0 0 
1522.14 0.0064042 -0.0104271 -0.0104271 0 2.68882e-17 0 7.49483e-11 -4.44119 -4.44119 0 5.89406e-15 0 1.39701e-10 0 0 
1522.19 0.0064042 -0.0104271 -0.0104271 0 2.68882e-17 0 7.5024e-11 -4.44119 -4.44119 0 5.89406e-15 0 1.40049e-10 0 0 
1522.25 0.0064042 -0.0104271 -0.0104271 0 2.68882e-17 0 7.5024e-11 -4.44119 -4.44119 0 5.89406e-15 0 1.40396e-10 0 0 
1522.3 0.0064042 -0.0104271 -0.0104271 0 2.68882e-17 0 7.49483e-11 -4.44119 -4.44119 0 5.89406e-15 0 1.40744e-10 0 0 
1522.36 0.0064042 -0.0104271 -0.0104271 0 2.68882e-17 0 7.50995e-11 -4.44119 -4.44119 0 5.89406e-15 0 1.41092e-10 0 0 
1522.41 0.0064042 -0.0104271 -0.0104271 0 2.68882e-17 0 7.51752e-11 -4.44119 -4.44119 0 5.89406e-15 0 1.41439e-10 0 0 
1522.47 0.0064042 -0.0104271 -0.0104271 0 2.68882e-17 0 7.51752e-11 -4.44119 -4.44119 0 5.89406e-15 0 1.41787e-10 0 0 
1522.52 0.0064042 -0.0104271 -0.0104271 0 2.68882e-17 0 7.53262e-11 -4.44119 -4.44119 0 5.89406e-15 0 1.42134e-10 0 0 
1522.58 0.0064042 -0.0104271 -0.0104271 0 2.68882e-17 0 7.53262e-11 -4.44119 -4.44119 0 5.89406e-15 0 1.42482e-10 0 0 
1522.63 0.0064042 -0.0104271 -0.0104271 0 2.68882e-17 0 7.51752e-11 -4.44119 -4.44119 0 5.89406e-15 0 1.42829e-10 0 0 
1522.69 0.0064042 -0.0104271 -0.0104271 0 2.68882e-17 0 7.51752e-11 -4.44119 -4.44119 0 5.89406e-15 0 1.43177e-10 0 0 
1522.74 0.0064042 -0.0104271 -0.0104271 0 2.68882e-17 0 7.52507e-11 -4.44119 -4.44119 0 5.89406e-15 0 1.43524e-10 0 0 
1522.8 0.0064042 -0.0104271 -0.0104271 0 2.68882e-17 0 7.52507e-11 -4.44119 -4.44119 0 5.89406e-15 0 1.43872e-10 0 0 
1522.85 0.0064042 -0.0104271 -0.0104271 0 2.68882e-17 0 7.54017e-11 -4.44119 -4.44119 0 5.89406e-15 0 1.44219e-10 0 0 
1522.91 0.0064042 -0.0104271 -0.0104271 0 2.68882e-17 0 7.52505e-11 -4.44119 -4.44119 0 5.89406e-15 0 1.44567e-10 0 0 
1522.96 0.0064042 -0.0104271 -0.0104271 0 2.68882e-17 0 7.5024e-11 -4.44119 -4.44119 0 5.89406e-15 0 1.44914e-10 0 0 
1523.02 0.0064042 -0.0104271 -0.0104271 0 2.68882e-17 0 7.4873e-11 -4.44119 -4.44119 0 5.89406e-15 0 1.45262e-10 0 0 
1523.07 0.0064042 -0.0104271 -0.0104271 0 2.68882e-17 0 7.47973e-11 -4.44119 -4.44119 0 5.89406e-15 0 1.45609e-10 0 0 
1523.13 0.0064042 -0.0104271 -0.0104271 0 2.68882e-17 0 7.48728e-11 -4.44119 -4.44119 0 5.89406e-15 0 1.45957e-10 0 0 
1523.18 0.0064042 -0.0104271 -0.0104271 0 2.68882e-17 0 7.47218e-11 -4.44119 -4.44119 0 5.89406e-15 0 1.46304e-10 0 0 
1523.24 0.0064042 -0.0104271 -0.0104271 0 2.68882e-17 0 7.46463e-11 -4.44119 -4.44119 0 5.89406e-15 0 1.46652e-10 0 0 
1523.29 0.0064042 -0.0104271 -0.0104271 0 2.68882e-17 0 7.47218e-11 -4.44119 -4.44119 0 5.89406e-15 0 1.46999e-10 0 0 
1523.35 0.0064042 -0.0104271 -0.0104271 0 2.68882e-17 0 7.46463e-11 -4.44119 -4.44119 0 5.89406e-15 0 1.47347e-10 0 0 
1523.4 0.0064042 -0.0104271 -0.0104271 0 2.68882e-17 0 7.44953e-11 -4.44119 -4.44119 0 5.89406e-15 0 1.47694e-10 0 0 
1523.46 0.0064042 -0.0104271 -0.0104271 0 2.68882e-17 0 7.44953e-11 -4.44119 -4.44119 0 5.89406e-15 0 1.48042e-10 0 0 
1523.51 0.0064042 -0.0104271 -0.0104271 0 2.68882e-17 0 7.45708e-11 -4.44119 -4.44119 0 5.89406e-15 0 1.48389e-10 0 0 
1523.57 0.0064042 -0.0104271 -0.0104271 0 2.68882e-17 0 7.45708e-11 -4.44119 -4.44119 0 5.89406e-15 0 1.48737e-10 0 0 
1523.62 0.0064042 -0.0104271 -0.0104271 0 2.68882e-17 0 7.44953e-11 -4.44119 -4.44119 0 5.89406e-15 0 1.49084e-10 0 0 
1523.68 0.0064042 -0.0104271 -0.0104271 0 2.68882e-17 0 7.45708e-11 -4.44119 -4.44119 0 5.89406e-15 0 1.49432e-10 0 0 
1523.73 0.0064042 -0.0104271 -0.0104271 0 2.68882e-17 0 7.46463e-11 -4.44119 -4.44119 0 5.89406e-15 0 1.49779e-10 0 0 
1523.79 0.0064042 -0.0104271 -0.0104271 0 2.68882e-17 0 7.46463e-11 -4.44119 -4.44119 0 5.89406e-15 0 1.50127e-10 0 0 
1523.84 0.0064042 -0.0104271 -0.0104271 0 2.68882e-17 0 7.47218e-11 -4.44119 -4.44119 0 5.89406e-15 0 1.50474e-10 0 0 
1523.9 0.0064042 -0.0104271 -0.0104271 0 2.68882e-17 0 7.49485e-11 -4.44119 -4.44119 0 5.89406e-15 0 1.50822e-10 0 0 
1523.95 0.0064042 -0.0104271 -0.0104271 0 2.68882e-17 0 7.49485e-11 -4.44119 -4.44119 0 5.89406e-15 0 1.51169e-10 0 0 
1524.01 0.0064042 -0.0104271 -0.0104271 0 2.68882e-17 0 7.47973e-11 -4.44119 -4.44119 0 5.89406e-15 0 1.51517e-10 0 0 
1524.06 0.0064042 -0.0104271 -0.0104271 0 2.68882e-17 0 7.47973e-11 -4.44119 -4.44119 0 5.89406e-15 0 1.51864e-10 0 0 
1524.12 0.0064042 -0.0104271 -0.0104271 0 2.68882e-17 0 7.47218e-11 -4.44119 -4.44119 0 5.89406e-15 0 1.52212e-10 0 0 
1524.17 0.0064042 -0.0104271 -0.0104271 0 2.68882e-17 0 7.46463e-11 -4.44119 -4.44119 0 5.89406e-15 0 1.5256e-10 0 0 
1524.23 0.0064042 -0.0104271 -0.0104271 0 2.68882e-17 0 7.47218e-11 -4.44119 -4.44119 0 5.89406e-15 0 1.52907e-10 0 0 
1524.28 0.0064042 -0.0104271 -0.0104271 0 2.68882e-17 0 7.47973e-11 -4.44119 -4.44119 0 5.89406e-15 0 1.53255e-10 0 0 
1524.34 0.0064042 -0.0104271 -0.0104271 0 2.68882e-17 0 7.47973e-11 -4.44119 -4.44119 0 5.89406e-15 0 1.53602e-10 0 0 
1524.39 0.0064042 -0.0104271 -0.0104271 0 2.68882e-17 0 7.47973e-11 -4.44119 -4.44119 0 5.89406e-15 0 1.5395e-10 0 0 
1524.45 0.0064042 -0.0104271 -0.0104271 0 2.68882e-17 0 7.47218e-11 -4.44119 -4.44119 0 5.89406e-15 0 1.54297e-10 0 0 
1524.5 0.0064042 -0.0104271 -0.0104271 0 2.68882e-17 0 7.46463e-11 -4.44119 -4.44119 0 5.89406e-15 0 1.54645e-10 0 0 
1524.56 0.0064042 -0.0104271 -0.0104271 0 2.68882e-17 0 7.47218e-11 -4.44119 -4.44119 0 5.89406e-15 0 1.54992e-10 0 0 
1524.61 0.0064042 -0.0104271 -0.0104271 0 2.68882e-17 0 7.47218e-11 -4.44119 -4.44119 0 5.89406e-15 0 1.5534e-10 0 0 
1524.67 0.0064042 -0.0104271 -0.0104271 0 2.68882e-17 0 7.45708e-11 -4.44119 -4.44119 0 5.89406e-15 0 1.55687e-10 0 0 
1524.72 0.0064042 -0.0104271 -0.0104271 0 2.68882e-17 0 7.47218e-11 -4.44119 -4.44119 0 5.89406e-15 0 1.56035e-10 0 0 
1524.78 0.0064042 -0.0104271 -0.0104271 0 2.68882e-17 0 7.47973e-11 -4.44119 -4.44119 0 5.89406e-15 0 1.56382e-10 0 0 
1524.83 0.0064042 -0.0104271 -0.0104271 0 2.68882e-17 0 7.45708e-11 -4.44119 -4.44119 0 5.89406e-15 0 1.5673e-10 0 0 
1524.89 0.0064042 -0.0104271 -0.0104271 0 2.68882e-17 0 7.44953e-11 -4.44119 -4.44119 0 5.89406e-15 0 1.57077e-10 0 0 
1524.94 0.0064042 -0.0104271 -0.0104271 0 2.68882e-17 0 7.44953e-11 -4.44119 -4.44119 0 5.89406e-15 0 1.57425e-10 0 0 
1525 0.0064042 -0.0104271 -0.0104271 0 2.68882e-17 0 7.44953e-11 -4.44119 -4.44119 0 5.89406e-15 0 1.57772e-10 0 0 
1525 1.86517e-13 0 0 0 0 0 7.43459e-11 1.93978e-11 1.93978e-11 0 1.32529e-27 0 1.57772e-10 0 0 
1525.06 1.86517e-13 0 0 0 0 0 7.43459e-11 1.93978e-11 1.93978e-11 0 1.32529e-27 0 1.57772e-10 0 0 
1525.11 1.86295e-13 0 0 0 0 0 7.42574e-11 1.93747e-11 1.93747e-11 0 1.32371e-27 0 1.57772e-10 0 0 
1525.17 1.85629e-13 0 0 0 0 0 7.39918e-11 1.93054e-11 1.93054e-11 0 1.31898e-27 0 1.57772e-10 0 0 
1525.22 1.85185e-13 0 0 0 0 0 7.38148e-11 1.92593e-11 1.92593e-11 0 1.31582e-27 0 1.57772e-10 0 0 
1525.28 1.84741e-13 0 0 0 0 0 7.36378e-11 1.92131e-11 1.92131e-11 0 1.31266e-27 0 1.57772e-10 0 0 
1525.33 1.85185e-13 0 0 0 0 0 7.38148e-11 1.92593e-11 1.92593e-11 0 1.31582e-27 0 1.57772e-10 0 0 
1525.39 1.85407e-13 0 0 0 0 0 7.39033e-11 1.92824e-11 1.92824e-11 0 1.3174e-27 0 1.57772e-10 0 0 
1525.44 1.84519e-13 0 0 0 0 0 7.35493e-11 1.919e-11 1.919e-11 0 1.31109e-27 0 1.57772e-10 0 0 
1525.5 1.83853e-13 0 0 0 0 0 7.32838e-11 1.91207e-11 1.91207e-11 0 1.30635e-27 0 1.57772e-10 0 0 
1525.55 1.82965e-13 0 0 0 0 0 7.29298e-11 1.90283e-11 1.90283e-11 0 1.30004e-27 0 1.57772e-10 0 0 
1525.61 1.82965e-13 0 0 0 0 0 7.29298e-11 1.90283e-11 1.90283e-11 0 1.30004e-27 0 1.57772e-10 0 0 
1525.66 1.83409e-13 0 0 0 0 0 7.31068e-11 1.90745e-11 1.90745e-11 0 1.3032e-27 0 1.57772e-10 0 0 
1525.72 1.83409e-13 0 0 0 0 0 7.31068e-11 1.90745e-11 1.90745e-11 0 1.3032e-27 0 1.57772e-10 0 0 
1525.77 1.83631e-13 0 0 0 0 0 7.31953e-11 1.90976e-11 1.90976e-11 0 1.30478e-27 0 1.57772e-10 0 0 
1525.83 1.83187e-13 0 0 0 0 0 7.30183e-11 1.90514e-11 1.90514e-11 0 1.30162e-27 0 1.57772e-10 0 0 
1525.88 1.81855e-13 0 0 0 0 0 7.24872e-11 1.89129e-11 1.89129e-11 0 1.29215e-27 0 1.57772e-10 0 0 
1525.94 1.81188e-13 0 0 0 0 0 7.22217e-11 1.88436e-11 1.88436e-11 0 1.28742e-27 0 1.57772e-10 0 0 
1525.99 1.80744e-13 0 0 0 0 0 7.20447e-11 1.87974e-11 1.87974e-11 0 1.28427e-27 0 1.57772e-10 0 0 
1526.05 1.803e-13 0 0 0 0 0 7.18677e-11 1.87512e-11 1.87512e-11 0 1.28111e-27 0 1.57772e-10 0 0 
1526.1 1.79634e-13 0 0 0 0 0 7.16021e-11 1.86819e-11 1.86819e-11 0 1.27638e-27 0 1.57772e-10 0 0 
1526.16 1.78968e-13 0 0 0 0 0 7.13366e-11 1.86127e-11 1.86127e-11 0 1.27164e-27 0 1.57772e-10 0 0 
1526.21 1.78968e-13 0 0 0 0 0 7.13366e-11 1.86127e-11 1.86127e-11 0 1.27164e-27 0 1.57772e-10 0 0 
1526.27 1.78968e-13 0 0 0 0 0 7.13366e-11 1.86127e-11 1.86127e-11 0 1.27164e-27 0 1.57772e-10 0 0 
1526.32 1.78968e-13 0 0 0 0 0 7.13366e-11 1.86127e-11 1.86127e-11 0 1.27164e-27 0 1.57772e-10 0 0 
1526.38 1.78746e-13 0 0 0 0 0 7.12481e-11 1.85896e-11 1.85896e-11 0 1.27007e-27 0 1.57772e-10 0 0 
1526.43 1.78746e-13 0 0 0 0 0 7.12481e-11 1.85896e-11 1.85896e-11 0 1.27007e-27 0 1.57772e-10 0 0 
1526.49 1.78968e-13 0 0 0 0 0 7.13366e-11 1.86127e-11 1.86127e-11 0 1.27164e-27 0 1.57772e-10 0 0 
1526.54 1.78968e-13 0 0 0 0 0 7.13366e-11 1.86127e-11 1.86127e-11 0 1.27164e-27 0 1.57772e-10 0 0 
1526.6 1.78968e-13 0 0 0 0 0 7.13366e-11 1.86127e-11 1.86127e-11 0 1.27164e-27 0 1.57772e-10 0 0 
1526.65 1.79412e-13 0 0 0 0 0 7.15136e-11 1.86589e-11 1.86589e-11 0 1.2748e-27 0 1.57772e-10 0 0 
1526.71 1.78968e-13 0 0 0 0 0 7.13366e-11 1.86127e-11 1.86127e-11 0 1.27164e-27 0 1.57772e-10 0 0 
1526.76 1.7808e-13 0 0 0 0 0 7.09826e-11 1.85203e-11 1.85203e-11 0 1.26533e-27 0 1.57772e-10 0 0 
1526.82 1.78302e-13 0 0 0 0 0 7.10711e-11 1.85434e-11 1.85434e-11 0 1.26691e-27 0 1.57772e-10 0 0 
1526.87 1.78524e-13 0 0 0 0 0 7.11596e-11 1.85665e-11 1.85665e-11 0 1.26849e-27 0 1.57772e-10 0 0 
1526.93 1.78746e-13 0 0 0 0 0 7.12481e-11 1.85896e-11 1.85896e-11 0 1.27007e-27 0 1.57772e-10 0 0 
1526.98 1.7919e-13 0 0 0 0 0 7.14251e-11 1.86358e-11 1.86358e-11 0 1.27322e-27 0 1.57772e-10 0 0 
1527.04 1.79634e-13 0 0 0 0 0 7.16021e-11 1.86819e-11 1.86819e-11 0 1.27638e-27 0 1.57772e-10 0 0 
1527.09 1.78968e-13 0 0 0 0 0 7.13366e-11 1.86127e-11 1.86127e-11 0 1.27164e-27 0 1.57772e-10 0 0 
1527.15 1.78524e-13 0 0 0 0 0 7.11596e-11 1.85665e-11 1.85665e-11 0 1.26849e-27 0 1.57772e-10 0 0 
1527.2 1.78524e-13 0 0 0 0 0 7.11596e-11 1.85665e-11 1.85665e-11 0 1.26849e-27 0 1.57772e-10 0 0 
1527.26 1.78302e-13 0 0 0 0 0 7.10711e-11 1.85434e-11 1.85434e-11 0 1.26691e-27 0 1.57772e-10 0 0 
1527.31 1.78746e-13 0 0 0 0 0 7.12481e-11 1.85896e-11 1.85896e-11 0 1.27007e-27 0 1.57772e-10 0 0 
1527.37 1.79634e-13 0 0 0 0 0 7.16021e-11 1.86819e-11 1.86819e-11 0 1.27638e-27 0 1.57772e-10 0 0 
1527.42 1.79634e-13 0 0 0 0 0 7.16021e-11 1.86819e-11 1.86819e-11 0 1.27638e-27 0 1.57772e-10 0 0 
1527.48 1.78746e-13 0 0 0 0 0 7.12481e-11 1.85896e-11 1.85896e-11 0 1.27007e-27 0 1.57772e-10 0 0 
1527.53 1.78302e-13 0 0 0 0 0 7.10711e-11 1.85434e-11 1.85434e-11 0 1.26691e-27 0 1.57772e-10 0 0 
1527.59 1.7697e-13 0 0 0 0 0 7.05401e-11 1.84048e-11 1.84048e-11 0 1.25744e-27 0 1.57772e-10 0 0 
1527.64 1.76748e-13 0 0 0 0 0 7.04516e-11 1.83817e-11 1.83817e-11 0 1.25587e-27 0 1.57772e-10 0 0 
1527.7 1.77192e-13 0 0 0 0 0 7.06286e-11 1.84279e-11 1.84279e-11 0 1.25902e-27 0 1.57772e-10 0 0 
1527.75 1.7697e-13 0 0 0 0 0 7.05401e-11 1.84048e-11 1.84048e-11 0 1.25744e-27 0 1.57772e-10 0 0 
1527.81 1.77192e-13 0 0 0 0 0 7.06286e-11 1.84279e-11 1.84279e-11 0 1.25902e-27 0 1.57772e-10 0 0 
1527.86 1.77192e-13 0 0 0 0 0 7.06286e-11 1.84279e-11 1.84279e-11 0 1.25902e-27 0 1.57772e-10 0 0 
1527.92 1.76748e-13 0 0 0 0 0 7.04516e-11 1.83817e-11 1.83817e-11 0 1.25587e-27 0 1.57772e-10 0 0 
1527.97 1.76525e-13 0 0 0 0 0 7.0363e-11 1.83586e-11 1.83586e-11 0 1.25429e-27 0 1.57772e-10 0 0 
1528.03 1.76525e-13 0 0 0 0 0 7.0363e-11 1.83586e-11 1.83586e-11 0 1.25429e-27 0 1.57772e-10 0 0 
1528.08 1.76748e-13 0 0 0 0 0 7.04516e-11 1.83817e-11 1.83817e-11 0 1.25587e-27 0 1.57772e-10 0 0 
1528.14 1.77414e-13 0 0 0 0 0 7.07171e-11 1.8451e-11 1.8451e-11 0 1.2606e-27 0 1.57772e-10 0 0 
1528.19 1.7697e-13 0 0 0 0 0 7.05401e-11 1.84048e-11 1.84048e-11 0 1.25744e-27 0 1.57772e-10 0 0 
1528.25 1.76525e-13 0 0 0 0 0 7.0363e-11 1.83586e-11 1.83586e-11 0 1.25429e-27 0 1.57772e-10 0 0 
1528.3 1.76303e-13 0 0 0 0 0 7.02745e-11 1.83356e-11 1.83356e-11 0 1.25271e-27 0 1.57772e-10 0 0 
1528.36 1.76303e-13 0 0 0 0 0 7.02745e-11 1.83356e-11 1.83356e-11 0 1.25271e-27 0 1.57772e-10 0 0 
1528.41 1.76748e-13 0 0 0 0 0 7.04516e-11 1.83817e-11 1.83817e-11 0 1.25587e-27 0 1.57772e-10 0 0 
1528.47 1.76748e-13 0 0 0 0 0 7.04516e-11 1.83817e-11 1.83817e-11 0 1.25587e-27 0 1.57772e-10 0 0 
1528.52 1.76303e-13 0 0 0 0 0 7.02745e-11 1.83356e-11 1.83356e-11 0 1.25271e-27 0 1.57772e-10 0 0 
1528.58 1.76525e-13 0 0 0 0 0 7.0363e-11 1.83586e-11 1.83586e-11 0 1.25429e-27 0 1.57772e-10 0 0 
1528.63 1.76748e-13 0 0 0 0 0 7.04516e-11 1.83817e-11 1.83817e-11 0 1.25587e-27 0 1.57772e-10 0 0 
1528.69 1.76303e-13 0 0 0 0 0 7.02745e-11 1.83356e-11 1.83356e-11 0 1.25271e-27 0 1.57772e-10 0 0 
1528.74 1.76748e-13 0 0 0 0 0 7.04516e-11 1.83817e-11 1.83817e-11 0 1.25587e-27 0 1.57772e-10 0 0 
1528.8 1.76748e-13 0 0 0 0 0 7.04516e-11 1.83817e-11 1.83817e-11 0 1.25587e-27 0 1.57772e-10 0 0 
1528.85 1.76303e-13 0 0 0 0 0 7.02745e-11 1.83356e-11 1.83356e-11 0 1.25271e-27 0 1.57772e-10 0 0 
1528.91 1.75637e-13 0 0 0 0 0 7.0009e-11 1.82663e-11 1.82663e-11 0 1.24798e-27 0 1.57772e-10 0 0 
1528.96 1.75637e-13 0 0 0 0 0 7.0009e-11 1.82663e-11 1.82663e-11 0 1.24798e-27 0 1.57772e-10 0 0 
1529.02 1.76303e-13 0 0 0 0 0 7.02745e-11 1.83356e-11 1.83356e-11 0 1.25271e-27 0 1.57772e-10 0 0 
1529.07 1.75415e-13 0 0 0 0 0 6.99205e-11 1.82432e-11 1.82432e-11 0 1.2464e-27 0 1.57772e-10 0 0 
1529.13 1.74527e-13 0 0 0 0 0 6.95665e-11 1.81508e-11 1.81508e-11 0 1.24009e-27 0 1.57772e-10 0 0 
1529.18 1.74527e-13 0 0 0 0 0 6.95665e-11 1.81508e-11 1.81508e-11 0 1.24009e-27 0 1.57772e-10 0 0 
1529.24 1.73861e-13 0 0 0 0 0 6.9301e-11 1.80815e-11 1.80815e-11 0 1.23536e-27 0 1.57772e-10 0 0 
1529.29 1.73195e-13 0 0 0 0 0 6.90354e-11 1.80123e-11 1.80123e-11 0 1.23062e-27 0 1.57772e-10 0 0 
1529.35 1.72751e-13 0 0 0 0 0 6.88584e-11 1.79661e-11 1.79661e-11 0 1.22747e-27 0 1.57772e-10 0 0 
1529.4 1.72973e-13 0 0 0 0 0 6.89469e-11 1.79892e-11 1.79892e-11 0 1.22905e-27 0 1.57772e-10 0 0 
1529.46 1.73195e-13 0 0 0 0 0 6.90354e-11 1.80123e-11 1.80123e-11 0 1.23062e-27 0 1.57772e-10 0 0 
1529.51 1.72751e-13 0 0 0 0 0 6.88584e-11 1.79661e-11 1.79661e-11 0 1.22747e-27 0 1.57772e-10 0 0 
1529.57 1.72307e-13 0 0 0 0 0 6.86814e-11 1.79199e-11 1.79199e-11 0 1.22431e-27 0 1.57772e-10 0 0 
1529.62 1.72307e-13 0 0 0 0 0 6.86814e-11 1.79199e-11 1.79199e-11 0 1.22431e-27 0 1.57772e-10 0 0 
1529.68 1.73195e-13 0 0 0 0 0 6.90354e-11 1.80123e-11 1.80123e-11 0 1.23062e-27 0 1.57772e-10 0 0 
1529.73 1.72973e-13 0 0 0 0 0 6.89469e-11 1.79892e-11 1.79892e-11 0 1.22905e-27 0 1.57772e-10 0 0 
1529.79 1.72085e-13 0 0 0 0 0 6.85929e-11 1.78968e-11 1.78968e-11 0 1.22273e-27 0 1.57772e-10 0 0 
1529.84 1.72751e-13 0 0 0 0 0 6.88584e-11 1.79661e-11 1.79661e-11 0 1.22747e-27 0 1.57772e-10 0 0 
1529.9 1.72973e-13 0 0 0 0 0 6.89469e-11 1.79892e-11 1.79892e-11 0 1.22905e-27 0 1.57772e-10 0 0 
1529.95 1.72307e-13 0 0 0 0 0 6.86814e-11 1.79199e-11 1.79199e-11 0 1.22431e-27 0 1.57772e-10 0 0 
1530.01 1.72307e-13 0 0 0 0 0 6.86814e-11 1.79199e-11 1.79199e-11 0 1.22431e-27 0 1.57772e-10 0 0 
1530.06 1.72085e-13 0 0 0 0 0 6.85929e-11 1.78968e-11 1.78968e-11 0 1.22273e-27 0 1.57772e-10 0 0 
1530.12 1.71418e-13 0 0 0 0 0 6.83274e-11 1.78275e-11 1.78275e-11 0 1.218e-27 0 1.57772e-10 0 0 
1530.17 1.71196e-13 0 0 0 0 0 6.82389e-11 1.78044e-11 1.78044e-11 0 1.21642e-27 0 1.57772e-10 0 0 
1530.23 1.71418e-13 0 0 0 0 0 6.83274e-11 1.78275e-11 1.78275e-11 0 1.218e-27 0 1.57772e-10 0 0 
1530.28 1.70974e-13 0 0 0 0 0 6.81504e-11 1.77813e-11 1.77813e-11 0 1.21485e-27 0 1.57772e-10 0 0 
1530.34 1.70086e-13 0 0 0 0 0 6.77963e-11 1.7689e-11 1.7689e-11 0 1.20853e-27 0 1.57772e-10 0 0 
1530.39 1.69864e-13 0 0 0 0 0 6.77078e-11 1.76659e-11 1.76659e-11 0 1.20696e-27 0 1.57772e-10 0 0 
1530.45 1.69642e-13 0 0 0 0 0 6.76193e-11 1.76428e-11 1.76428e-11 0 1.20538e-27 0 1.57772e-10 0 0 
1530.5 1.69642e-13 0 0 0 0 0 6.76193e-11 1.76428e-11 1.76428e-11 0 1.20538e-27 0 1.57772e-10 0 0 
1530.56 1.69198e-13 0 0 0 0 0 6.74423e-11 1.75966e-11 1.75966e-11 0 1.20222e-27 0 1.57772e-10 0 0 
1530.61 1.68088e-13 0 0 0 0 0 6.69998e-11 1.74811e-11 1.74811e-11 0 1.19434e-27 0 1.57772e-10 0 0 
1530.67 1.67644e-13 0 0 0 0 0 6.68228e-11 1.74349e-11 1.74349e-11 0 1.19118e-27 0 1.57772e-10 0 0 
1530.72 1.67644e-13 0 0 0 0 0 6.68228e-11 1.74349e-11 1.74349e-11 0 1.19118e-27 0 1.57772e-10 0 0 
1530.78 1.67644e-13 0 0 0 0 0 6.68228e-11 1.74349e-11 1.74349e-11 0 1.19118e-27 0 1.57772e-10 0 0 
1530.83 1.672e-13 0 0 0 0 0 6.66458e-11 1.73888e-11 1.73888e-11 0 1.18802e-27 0 1.57772e-10 0 0 
1530.89 1.672e-13 0 0 0 0 0 6.66458e-11 1.73888e-11 1.73888e-11 0 1.18802e-27 0 1.57772e-10 0 0 
1530.94 1.67644e-13 0 0 0 0 0 6.68228e-11 1.74349e-11 1.74349e-11 0 1.19118e-27 0 1.57772e-10 0 0 
1531 1.67866e-13 0 0 0 0 0 6.69113e-11 1.7458e-11 1.7458e-11 0 1.19276e-27 0 1.57772e-10 0 0 
1531 1.67422e-13 0 0 0 0 0 6.67343e-11 1.74118e-11 1.74118e-11 0 1.1896e-27 0 1.57772e-10 0 0 
1531.06 1.67422e-13 0 0 0 0 0 6.67343e-11 1.74118e-11 1.74118e-11 0 1.1896e-27 0 1.57772e-10 0 0 
1531.11 1.672e-13 0 0 0 0 0 6.66458e-11 1.73888e-11 1.73888e-11 0 1.18802e-27 0 1.57772e-10 0 0 
1531.17 1.66978e-13 0 0 0 0 0 6.65572e-11 1.73657e-11 1.73657e-11 0 1.18645e-27 0 1.57772e-10 0 0 
1531.22 1.66978e-13 0 0 0 0 0 6.65572e-11 1.73657e-11 1.73657e-11 0 1.18645e-27 0 1.57772e-10 0 0 
1531.28 1.66533e-13 0 0 0 0 0 6.63802e-11 1.73195e-11 1.73195e-11 0 1.18329e-27 0 1.57772e-10 0 0 
1531.33 1.66089e-13 0 0 0 0 0 6.62032e-11 1.72733e-11 1.72733e-11 0 1.18014e-27 0 1.57772e-10 0 0 
1531.39 1.65645e-13 0 0 0 0 0 6.60262e-11 1.72271e-11 1.72271e-11 0 1.17698e-27 0 1.57772e-10 0 0 
1531.44 1.64535e-13 0 0 0 0 0 6.55837e-11 1.71116e-11 1.71116e-11 0 1.16909e-27 0 1.57772e-10 0 0 
1531.5 1.63869e-13 0 0 0 0 0 6.53182e-11 1.70424e-11 1.70424e-11 0 1.16436e-27 0 1.57772e-10 0 0 
1531.55 1.63869e-13 0 0 0 0 0 6.53182e-11 1.70424e-11 1.70424e-11 0 1.16436e-27 0 1.57772e-10 0 0 
1531.61 1.63425e-13 0 0 0 0 0 6.51411e-11 1.69962e-11 1.69962e-11 0 1.1612e-27 0 1.57772e-10 0 0 
1531.66 1.62981e-13 0 0 0 0 0 6.49641e-11 1.695e-11 1.695e-11 0 1.15805e-27 0 1.57772e-10 0 0 
1531.72 1.62315e-13 0 0 0 0 0 6.46986e-11 1.68807e-11 1.68807e-11 0 1.15331e-27 0 1.57772e-10 0 0 
1531.77 1.62537e-13 0 0 0 0 0 6.47871e-11 1.69038e-11 1.69038e-11 0 1.15489e-27 0 1.57772e-10 0 0 
1531.83 1.62759e-13 0 0 0 0 0 6.48756e-11 1.69269e-11 1.69269e-11 0 1.15647e-27 0 1.57772e-10 0 0 
1531.88 1.61871e-13 0 0 0 0 0 6.45216e-11 1.68345e-11 1.68345e-11 0 1.15016e-27 0 1.57772e-10 0 0 
1531.94 1.61648e-13 0 0 0 0 0 6.44331e-11 1.68114e-11 1.68114e-11 0 1.14858e-27 0 1.57772e-10 0 0 
1531.99 1.61426e-13 0 0 0 0 0 6.43446e-11 1.67883e-11 1.67883e-11 0 1.147e-27 0 1.57772e-10 0 0 
1532.05 1.61426e-13 0 0 0 0 0 6.43446e-11 1.67883e-11 1.67883e-11 0 1.147e-27 0 1.57772e-10 0 0 
1532.1 1.61204e-13 0 0 0 0 0 6.42561e-11 1.67653e-11 1.67653e-11 0 1.14543e-27 0 1.57772e-10 0 0 
1532.16 1.61204e-13 0 0 0 0 0 6.42561e-11 1.67653e-11 1.67653e-11 0 1.14543e-27 0 1.57772e-10 0 0 
1532.21 1.61871e-13 0 0 0 0 0 6.45216e-11 1.68345e-11 1.68345e-11 0 1.15016e-27 0 1.57772e-10 0 0 
1532.27 1.61204e-13 0 0 0 0 0 6.42561e-11 1.67653e-11 1.67653e-11 0 1.14543e-27 0 1.57772e-10 0 0 
1532.32 1.6076e-13 0 0 0 0 0 6.40791e-11 1.67191e-11 1.67191e-11 0 1.14227e-27 0 1.57772e-10 0 0 
1532.38 1.60982e-13 0 0 0 0 0 6.41676e-11 1.67422e-11 1.67422e-11 0 1.14385e-27 0 1.57772e-10 0 0 
1532.43 1.60538e-13 0 0 0 0 0 6.39905e-11 1.6696e-11 1.6696e-11 0 1.14069e-27 0 1.57772e-10 0 0 
1532.49 1.59872e-13 0 0 0 0 0 6.3725e-11 1.66267e-11 1.66267e-11 0 1.13596e-27 0 1.57772e-10 0 0 
1532.54 1.5965e-13 0 0 0 0 0 6.36365e-11 1.66036e-11 1.66036e-11 0 1.13438e-27 0 1.57772e-10 0 0 
1532.6 1.5965e-13 0 0 0 0 0 6.36365e-11 1.66036e-11 1.66036e-11 0 1.13438e-27 0 1.57772e-10 0 0 
1532.65 1.58984e-13 0 0 0 0 0 6.3371e-11 1.65343e-11 1.65343e-11 0 1.12965e-27 0 1.57772e-10 0 0 
1532.71 1.58984e-13 0 0 0 0 0 6.3371e-11 1.65343e-11 1.65343e-11 0 1.12965e-27 0 1.57772e-10 0 0 
1532.76 1.58762e-13 0 0 0 0 0 6.32825e-11 1.65112e-11 1.65112e-11 0 1.12807e-27 0 1.57772e-10 0 0 
1532.82 1.57874e-13 0 0 0 0 0 6.29285e-11 1.64189e-11 1.64189e-11 0 1.12176e-27 0 1.57772e-10 0 0 
1532.87 1.5743e-13 0 0 0 0 0 6.27514e-11 1.63727e-11 1.63727e-11 0 1.1186e-27 0 1.57772e-10 0 0 
1532.93 1.56986e-13 0 0 0 0 0 6.25744e-11 1.63265e-11 1.63265e-11 0 1.11545e-27 0 1.57772e-10 0 0 
1532.98 1.56541e-13 0 0 0 0 0 6.23974e-11 1.62803e-11 1.62803e-11 0 1.11229e-27 0 1.57772e-10 0 0 
1533.04 1.56541e-13 0 0 0 0 0 6.23974e-11 1.62803e-11 1.62803e-11 0 1.11229e-27 0 1.57772e-10 0 0 
1533.09 1.57208e-13 0 0 0 0 0 6.26629e-11 1.63496e-11 1.63496e-11 0 1.11703e-27 0 1.57772e-10 0 0 
1533.15 1.56763e-13 0 0 0 0 0 6.24859e-11 1.63034e-11 1.63034e-11 0 1.11387e-27 0 1.57772e-10 0 0 
1533.2 1.56097e-13 0 0 0 0 0 6.22204e-11 1.62341e-11 1.62341e-11 0 1.10914e-27 0 1.57772e-10 0 0 
1533.26 1.56541e-13 0 0 0 0 0 6.23974e-11 1.62803e-11 1.62803e-11 0 1.11229e-27 0 1.57772e-10 0 0 
1533.31 1.56097e-13 0 0 0 0 0 6.22204e-11 1.62341e-11 1.62341e-11 0 1.10914e-27 0 1.57772e-10 0 0 
1533.37 1.55431e-13 0 0 0 0 0 6.19549e-11 1.61648e-11 1.61648e-11 0 1.10441e-27 0 1.57772e-10 0 0 
1533.42 1.55875e-13 0 0 0 0 0 6.21319e-11 1.6211e-11 1.6211e-11 0 1.10756e-27 0 1.57772e-10 0 0 
1533.48 1.56097e-13 0 0 0 0 0 6.22204e-11 1.62341e-11 1.62341e-11 0 1.10914e-27 0 1.57772e-10 0 0 
1533.53 1.55209e-13 0 0 0 0 0 6.18664e-11 1.61418e-11 1.61418e-11 0 1.10283e-27 0 1.57772e-10 0 0 
1533.59 1.54321e-13 0 0 0 0 0 6.15124e-11 1.60494e-11 1.60494e-11 0 1.09652e-27 0 1.57772e-10 0 0 
1533.64 1.53877e-13 0 0 0 0 0 6.13353e-11 1.60032e-11 1.60032e-11 0 1.09336e-27 0 1.57772e-10 0 0 
1533.7 1.54321e-13 0 0 0 0 0 6.15124e-11 1.60494e-11 1.60494e-11 0 1.09652e-27 0 1.57772e-10 0 0 
1533.75 1.54765e-13 0 0 0 0 0 6.16894e-11 1.60956e-11 1.60956e-11 0 1.09967e-27 0 1.57772e-10 0 0 
1533.81 1.54987e-13 0 0 0 0 0 6.17779e-11 1.61187e-11 1.61187e-11 0 1.10125e-27 0 1.57772e-10 0 0 
1533.86 1.55431e-13 0 0 0 0 0 6.19549e-11 1.61648e-11 1.61648e-11 0 1.10441e-27 0 1.57772e-10 0 0 
1533.92 1.55209e-13 0 0 0 0 0 6.18664e-11 1.61418e-11 1.61418e-11 0 1.10283e-27 0 1.57772e-10 0 0 
1533.97 1.54543e-13 0 0 0 0 0 6.16009e-11 1.60725e-11 1.60725e-11 0 1.09809e-27 0 1.57772e-10 0 0 
1534.03 1.54543e-13 0 0 0 0 0 6.16009e-11 1.60725e-11 1.60725e-11 0 1.09809e-27 0 1.57772e-10 0 0 
1534.08 1.54543e-13 0 0 0 0 0 6.16009e-11 1.60725e-11 1.60725e-11 0 1.09809e-27 0 1.57772e-10 0 0 
1534.14 1.54543e-13 0 0 0 0 0 6.16009e-11 1.60725e-11 1.60725e-11 0 1.09809e-27 0 1.57772e-10 0 0 
1534.19 1.54765e-13 0 0 0 0 0 6.16894e-11 1.60956e-11 1.60956e-11 0 1.09967e-27 0 1.57772e-10 0 0 
1534.25 1.54543e-13 0 0 0 0 0 6.16009e-11 1.60725e-11 1.60725e-11 0 1.09809e-27 0 1.57772e-10 0 0 
1534.3 1.54987e-13 0 0 0 0 0 6.17779e-11 1.61187e-11 1.61187e-11 0 1.10125e-27 0 1.57772e-10 0 0 
1534.36 1.55431e-13 0 0 0 0 0 6.19549e-11 1.61648e-11 1.61648e-11 0 1.10441e-27 0 1.57772e-10 0 0 
1534.41 1.54987e-13 0 0 0 0 0 6.17779e-11 1.61187e-11 1.61187e-11 0 1.10125e-27 0 1.57772e-10 0 0 
1534.47 1.54987e-13 0 0 0 0 0 6.17779e-11 1.61187e-11 1.61187e-11 0 1.10125e-27 0 1.57772e-10 0 0 
1534.52 1.54321e-13 0 0 0 0 0 6.15124e-11 1.60494e-11 1.60494e-11 0 1.09652e-27 0 1.57772e-10 0 0 
1534.58 1.53655e-13 0 0 0 0 0 6.12468e-11 1.59801e-11 1.59801e-11 0 1.09178e-27 0 1.57772e-10 0 0 
1534.63 1.54321e-13 0 0 0 0 0 6.15124e-11 1.60494e-11 1.60494e-11 0 1.09652e-27 0 1.57772e-10 0 0 
1534.69 1.53877e-13 0 0 0 0 0 6.13353e-11 1.60032e-11 1.60032e-11 0 1.09336e-27 0 1.57772e-10 0 0 
1534.74 1.53433e-13 0 0 0 0 0 6.11583e-11 1.5957e-11 1.5957e-11 0 1.09021e-27 0 1.57772e-10 0 0 
1534.8 1.53655e-13 0 0 0 0 0 6.12468e-11 1.59801e-11 1.59801e-11 0 1.09178e-27 0 1.57772e-10 0 0 
1534.85 1.53211e-13 0 0 0 0 0 6.10698e-11 1.59339e-11 1.59339e-11 0 1.08863e-27 0 1.57772e-10 0 0 
1534.91 1.52989e-13 0 0 0 0 0 6.09813e-11 1.59108e-11 1.59108e-11 0 1.08705e-27 0 1.57772e-10 0 0 
1534.96 1.52989e-13 0 0 0 0 0 6.09813e-11 1.59108e-11 1.59108e-11 0 1.08705e-27 0 1.57772e-10 0 0 
1535.02 1.52767e-13 0 0 0 0 0 6.08928e-11 1.58877e-11 1.58877e-11 0 1.08547e-27 0 1.57772e-10 0 0 
1535.07 1.52989e-13 0 0 0 0 0 6.09813e-11 1.59108e-11 1.59108e-11 0 1.08705e-27 0 1.57772e-10 0 0 
1535.13 1.52989e-13 0 0 0 0 0 6.09813e-11 1.59108e-11 1.59108e-11 0 1.08705e-27 0 1.57772e-10 0 0 
1535.18 1.52989e-13 0 0 0 0 0 6.09813e-11 1.59108e-11 1.59108e-11 0 1.08705e-27 0 1.57772e-10 0 0 
1535.24 1.53211e-13 0 0 0 0 0 6.10698e-11 1.59339e-11 1.59339e-11 0 1.08863e-27 0 1.57772e-10 0 0 
1535.29 1.52989e-13 0 0 0 0 0 6.09813e-11 1.59108e-11 1.59108e-11 0 1.08705e-27 0 1.57772e-10 0 0 
1535.35 1.52545e-13 0 0 0 0 0 6.08043e-11 1.58646e-11 1.58646e-11 0 1.08389e-27 0 1.57772e-10 0 0 
1535.4 1.52323e-13 0 0 0 0 0 6.07158e-11 1.58416e-11 1.58416e-11 0 1.08232e-27 0 1.57772e-10 0 0 
1535.46 1.52323e-13 0 0 0 0 0 6.07158e-11 1.58416e-11 1.58416e-11 0 1.08232e-27 0 1.57772e-10 0 0 
1535.51 1.52545e-13 0 0 0 0 0 6.08043e-11 1.58646e-11 1.58646e-11 0 1.08389e-27 0 1.57772e-10 0 0 
1535.57 1.52767e-13 0 0 0 0 0 6.08928e-11 1.58877e-11 1.58877e-11 0 1.08547e-27 0 1.57772e-10 0 0 
1535.62 1.52989e-13 0 0 0 0 0 6.09813e-11 1.59108e-11 1.59108e-11 0 1.08705e-27 0 1.57772e-10 0 0 
1535.68 1.52767e-13 0 0 0 0 0 6.08928e-11 1.58877e-11 1.58877e-11 0 1.08547e-27 0 1.57772e-10 0 0 
1535.73 1.52323e-13 0 0 0 0 0 6.07158e-11 1.58416e-11 1.58416e-11 0 1.08232e-27 0 1.57772e-10 0 0 
1535.79 1.52323e-13 0 0 0 0 0 6.07158e-11 1.58416e-11 1.58416e-11 0 1.08232e-27 0 1.57772e-10 0 0 
1535.84 1.52101e-13 0 0 0 0 0 6.06273e-11 1.58185e-11 1.58185e-11 0 1.08074e-27 0 1.57772e-10 0 0 
1535.9 1.51434e-13 0 0 0 0 0 6.03618e-11 1.57492e-11 1.57492e-11 0 1.07601e-27 0 1.57772e-10 0 0 
1535.95 1.51434e-13 0 0 0 0 0 6.03618e-11 1.57492e-11 1.57492e-11 0 1.07601e-27 0 1.57772e-10 0 0 
1536.01 1.51656e-13 0 0 0 0 0 6.04503e-11 1.57723e-11 1.57723e-11 0 1.07758e-27 0 1.57772e-10 0 0 
1536.06 1.5099e-13 0 0 0 0 0 6.01847e-11 1.5703e-11 1.5703e-11 0 1.07285e-27 0 1.57772e-10 0 0 
1536.12 1.50546e-13 0 0 0 0 0 6.00077e-11 1.56568e-11 1.56568e-11 0 1.0697e-27 0 1.57772e-10 0 0 
1536.17 1.50102e-13 0 0 0 0 0 5.98307e-11 1.56106e-11 1.56106e-11 0 1.06654e-27 0 1.57772e-10 0 0 
1536.23 1.49214e-13 0 0 0 0 0 5.94767e-11 1.55183e-11 1.55183e-11 0 1.06023e-27 0 1.57772e-10 0 0 
1536.28 1.49214e-13 0 0 0 0 0 5.94767e-11 1.55183e-11 1.55183e-11 0 1.06023e-27 0 1.57772e-10 0 0 
1536.34 1.4877e-13 0 0 0 0 0 5.92997e-11 1.54721e-11 1.54721e-11 0 1.05707e-27 0 1.57772e-10 0 0 
1536.39 1.4877e-13 0 0 0 0 0 5.92997e-11 1.54721e-11 1.54721e-11 0 1.05707e-27 0 1.57772e-10 0 0 
1536.45 1.48992e-13 0 0 0 0 0 5.93882e-11 1.54952e-11 1.54952e-11 0 1.05865e-27 0 1.57772e-10 0 0 
1536.5 1.47882e-13 0 0 0 0 0 5.89456e-11 1.53797e-11 1.53797e-11 0 1.05076e-27 0 1.57772e-10 0 0 
1536.56 1.47216e-13 0 0 0 0 0 5.86801e-11 1.53104e-11 1.53104e-11 0 1.04603e-27 0 1.57772e-10 0 0 
1536.61 1.46327e-13 0 0 0 0 0 5.83261e-11 1.5218e-11 1.5218e-11 0 1.03972e-27 0 1.57772e-10 0 0 
1536.67 1.45883e-13 0 0 0 0 0 5.81491e-11 1.51719e-11 1.51719e-11 0 1.03656e-27 0 1.57772e-10 0 0 
1536.72 1.46549e-13 0 0 0 0 0 5.84146e-11 1.52411e-11 1.52411e-11 0 1.0413e-27 0 1.57772e-10 0 0 
1536.78 1.46771e-13 0 0 0 0 0 5.85031e-11 1.52642e-11 1.52642e-11 0 1.04287e-27 0 1.57772e-10 0 0 
1536.83 1.46105e-13 0 0 0 0 0 5.82376e-11 1.5195e-11 1.5195e-11 0 1.03814e-27 0 1.57772e-10 0 0 
1536.89 1.45883e-13 0 0 0 0 0 5.81491e-11 1.51719e-11 1.51719e-11 0 1.03656e-27 0 1.57772e-10 0 0 
1536.94 1.46771e-13 0 0 0 0 0 5.85031e-11 1.52642e-11 1.52642e-11 0 1.04287e-27 0 1.57772e-10 0 0 
1537 1.47438e-13 0 0 0 0 0 5.87686e-11 1.53335e-11 1.53335e-11 0 1.04761e-27 0 1.57772e-10 0 0 
1537 0.00245628 -0.0048291 -0.0048291 0 -2.68882e-17 0 5.87219e-11 -2.17121 -2.17121 0 -5.63848e-15 0 1.57772e-10 0 0 
1537.06 0.00245628 -0.0048291 -0.0048291 0 -2.68882e-17 0 5.87219e-11 -2.17121 -2.17121 0 -5.63848e-15 0 1.58344e-10 0 0 
1537.11 0.00245628 -0.0048291 -0.0048291 0 -2.68882e-17 0 5.87219e-11 -2.17121 -2.17121 0 -5.63848e-15 0 1.58915e-10 0 0 
1537.17 0.00245628 -0.0048291 -0.0048291 0 -2.68882e-17 0 5.8632e-11 -2.17121 -2.17121 0 -5.63848e-15 0 1.59487e-10 0 0 
1537.22 0.00245628 -0.0048291 -0.0048291 0 -2.68882e-17 0 5.85421e-11 -2.17121 -2.17121 0 -5.63848e-15 0 1.60058e-10 0 0 
1537.28 0.00245628 -0.0048291 -0.0048291 0 -2.68882e-17 0 5.87219e-11 -2.17121 -2.17121 0 -5.63848e-15 0 1.6063e-10 0 0 
1537.33 0.00245628 -0.0048291 -0.0048291 0 -2.68882e-17 0 5.87219e-11 -2.17121 -2.17121 0 -5.63848e-15 0 1.61201e-10 0 0 
1537.39 0.00245628 -0.0048291 -0.0048291 0 -2.68882e-17 0 5.85421e-11 -2.17121 -2.17121 0 -5.63848e-15 0 1.61773e-10 0 0 
1537.44 0.00245628 -0.0048291 -0.0048291 0 -2.68882e-17 0 5.84521e-11 -2.17121 -2.17121 0 -5.63848e-15 0 1.62344e-10 0 0 
1537.5 0.00245628 -0.0048291 -0.0048291 0 -2.68882e-17 0 5.83622e-11 -2.17121 -2.17121 0 -5.63848e-15 0 1.62916e-10 0 0 
1537.56 0.00245628 -0.0048291 -0.0048291 0 -2.68882e-17 0 5.84521e-11 -2.17121 -2.17121 0 -5.63848e-15 0 1.63487e-10 0 0 
1537.61 0.00245628 -0.0048291 -0.0048291 0 -2.68882e-17 0 5.85421e-11 -2.17121 -2.17121 0 -5.63848e-15 0 1.64059e-10 0 0 
1537.67 0.00245628 -0.0048291 -0.0048291 0 -2.68882e-17 0 5.87219e-11 -2.17121 -2.17121 0 -5.63848e-15 0 1.6463e-10 0 0 
1537.72 0.00245628 -0.0048291 -0.0048291 0 -2.68882e-17 0 5.87219e-11 -2.17121 -2.17121 0 -5.63848e-15 0 1.65201e-10 0 0 
1537.78 0.00245628 -0.0048291 -0.0048291 0 -2.68882e-17 0 5.87219e-11 -2.17121 -2.17121 0 -5.63848e-15 0 1.65773e-10 0 0 
1537.83 0.00245628 -0.0048291 -0.0048291 0 -2.68882e-17 0 5.88118e-11 -2.17121 -2.17121 0 -5.63848e-15 0 1.66344e-10 0 0 
1537.89 0.00245628 -0.0048291 -0.0048291 0 -2.68882e-17 0 5.87219e-11 -2.17121 -2.17121 0 -5.63848e-15 0 1.66916e-10 0 0 
1537.94 0.00245628 -0.0048291 -0.0048291 0 -2.68882e-17 0 5.88118e-11 -2.17121 -2.17121 0 -5.63848e-15 0 1.67487e-10 0 0 
1538 0.00245628 -0.0048291 -0.0048291 0 -2.68882e-17 0 5.90816e-11 -2.17121 -2.17121 0 -5.63848e-15 0 1.68059e-10 0 0 
1538.06 0.00245628 -0.0048291 -0.0048291 0 -2.68882e-17 0 5.89917e-11 -2.17121 -2.17121 0 -5.63848e-15 0 1.6863e-10 0 0 
1538.11 0.00245628 -0.0048291 -0.0048291 0 -2.68882e-17 0 5.89018e-11 -2.17121 -2.17121 0 -5.63848e-15 0 1.69202e-10 0 0 
1538.17 0.00245628 -0.0048291 -0.0048291 0 -2.68882e-17 0 5.89018e-11 -2.17121 -2.17121 0 -5.63848e-15 0 1.69773e-10 0 0 
1538.22 0.00245628 -0.0048291 -0.0048291 0 -2.68882e-17 0 5.88118e-11 -2.17121 -2.17121 0 -5.63848e-15 0 1.70345e-10 0 0 
1538.28 0.00245628 -0.0048291 -0.0048291 0 -2.68882e-17 0 5.87219e-11 -2.17121 -2.17121 0 -5.63848e-15 0 1.70916e-10 0 0 
1538.33 0.00245628 -0.0048291 -0.0048291 0 -2.68882e-17 0 5.84521e-11 -2.17121 -2.17121 0 -5.63848e-15 0 1.71488e-10 0 0 
1538.39 0.00245628 -0.0048291 -0.0048291 0 -2.68882e-17 0 5.81823e-11 -2.17121 -2.17121 0 -5.63848e-15 0 1.72059e-10 0 0 
1538.44 0.00245628 -0.0048291 -0.0048291 0 -2.68882e-17 0 5.81823e-11 -2.17121 -2.17121 0 -5.63848e-15 0 1.72631e-10 0 0 
1538.5 0.00245628 -0.0048291 -0.0048291 0 -2.68882e-17 0 5.84521e-11 -2.17121 -2.17121 0 -5.63848e-15 0 1.73202e-10 0 0 
1538.56 0.00245628 -0.0048291 -0.0048291 0 -2.68882e-17 0 5.85421e-11 -2.17121 -2.17121 0 -5.63848e-15 0 1.73774e-10 0 0 
1538.61 0.00245628 -0.0048291 -0.0048291 0 -2.68882e-17 0 5.84521e-11 -2.17121 -2.17121 0 -5.63848e-15 0 1.74345e-10 0 0 
1538.67 0.00245628 -0.0048291 -0.0048291 0 -2.68882e-17 0 5.85421e-11 -2.17121 -2.17121 0 -5.63848e-15 0 1.74917e-10 0 0 
1538.72 0.00245628 -0.0048291 -0.0048291 0 -2.68882e-17 0 5.87219e-11 -2.17121 -2.17121 0 -5.63848e-15 0 1.75488e-10 0 0 
1538.78 0.00245628 -0.0048291 -0.0048291 0 -2.68882e-17 0 5.88118e-11 -2.17121 -2.17121 0 -5.63848e-15 0 1.76059e-10 0 0 
1538.83 0.00245628 -0.0048291 -0.0048291 0 -2.68882e-17 0 5.89917e-11 -2.17121 -2.17121 0 -5.63848e-15 0 1.76631e-10 0 0 
1538.89 0.00245628 -0.0048291 -0.0048291 0 -2.68882e-17 0 5.90816e-11 -2.17121 -2.17121 0 -5.63848e-15 0 1.77202e-10 0 0 
1538.94 0.00245628 -0.0048291 -0.0048291 0 -2.68882e-17 0 5.90816e-11 -2.17121 -2.17121 0 -5.63848e-15 0 1.77774e-10 0 0 
1539 0.00245628 -0.0048291 -0.0048291 0 -2.68882e-17 0 5.90816e-11 -2.17121 -2.17121 0 -5.63848e-15 0 1.78345e-10 0 0 
1539 1.47882e-13 0 0 0 0 0 5.89456e-11 1.53797e-11 1.53797e-11 0 1.05076e-27 0 1.78345e-10 0 0 
1539.06 1.47438e-13 0 0 0 0 0 5.87686e-11 1.53335e-11 1.53335e-11 0 1.04761e-27 0 1.78345e-10 0 0 
1539.11 1.46771e-13 0 0 0 0 0 5.85031e-11 1.52642e-11 1.52642e-11 0 1.04287e-27 0 1.78345e-10 0 0 
1539.17 1.46771e-13 0 0 0 0 0 5.85031e-11 1.52642e-11 1.52642e-11 0 1.04287e-27 0 1.78345e-10 0 0 
1539.22 1.46105e-13 0 0 0 0 0 5.82376e-11 1.5195e-11 1.5195e-11 0 1.03814e-27 0 1.78345e-10 0 0 
1539.28 1.45217e-13 0 0 0 0 0 5.78836e-11 1.51026e-11 1.51026e-11 0 1.03183e-27 0 1.78345e-10 0 0 
1539.33 1.44995e-13 0 0 0 0 0 5.77951e-11 1.50795e-11 1.50795e-11 0 1.03025e-27 0 1.78345e-10 0 0 
1539.39 1.44995e-13 0 0 0 0 0 5.77951e-11 1.50795e-11 1.50795e-11 0 1.03025e-27 0 1.78345e-10 0 0 
1539.44 1.44551e-13 0 0 0 0 0 5.7618e-11 1.50333e-11 1.50333e-11 0 1.0271e-27 0 1.78345e-10 0 0 
1539.5 1.44329e-13 0 0 0 0 0 5.75295e-11 1.50102e-11 1.50102e-11 0 1.02552e-27 0 1.78345e-10 0 0 
1539.55 1.44329e-13 0 0 0 0 0 5.75295e-11 1.50102e-11 1.50102e-11 0 1.02552e-27 0 1.78345e-10 0 0 
1539.61 1.44551e-13 0 0 0 0 0 5.7618e-11 1.50333e-11 1.50333e-11 0 1.0271e-27 0 1.78345e-10 0 0 
1539.66 1.44551e-13 0 0 0 0 0 5.7618e-11 1.50333e-11 1.50333e-11 0 1.0271e-27 0 1.78345e-10 0 0 
1539.72 1.43219e-13 0 0 0 0 0 5.7087e-11 1.48948e-11 1.48948e-11 0 1.01763e-27 0 1.78345e-10 0 0 
1539.77 1.42553e-13 0 0 0 0 0 5.68215e-11 1.48255e-11 1.48255e-11 0 1.0129e-27 0 1.78345e-10 0 0 
1539.83 1.42997e-13 0 0 0 0 0 5.69985e-11 1.48717e-11 1.48717e-11 0 1.01605e-27 0 1.78345e-10 0 0 
1539.88 1.42775e-13 0 0 0 0 0 5.691e-11 1.48486e-11 1.48486e-11 0 1.01448e-27 0 1.78345e-10 0 0 
1539.94 1.41664e-13 0 0 0 0 0 5.64675e-11 1.47331e-11 1.47331e-11 0 1.00659e-27 0 1.78345e-10 0 0 
1539.99 1.41887e-13 0 0 0 0 0 5.6556e-11 1.47562e-11 1.47562e-11 0 1.00816e-27 0 1.78345e-10 0 0 
1540.05 1.4122e-13 0 0 0 0 0 5.62904e-11 1.46869e-11 1.46869e-11 0 1.00343e-27 0 1.78345e-10 0 0 
1540.1 1.4011e-13 0 0 0 0 0 5.58479e-11 1.45715e-11 1.45715e-11 0 9.95542e-28 0 1.78345e-10 0 0 
1540.16 1.40332e-13 0 0 0 0 0 5.59364e-11 1.45945e-11 1.45945e-11 0 9.9712e-28 0 1.78345e-10 0 0 
1540.21 1.40332e-13 0 0 0 0 0 5.59364e-11 1.45945e-11 1.45945e-11 0 9.9712e-28 0 1.78345e-10 0 0 
1540.27 1.4011e-13 0 0 0 0 0 5.58479e-11 1.45715e-11 1.45715e-11 0 9.95542e-28 0 1.78345e-10 0 0 
1540.32 1.39888e-13 0 0 0 0 0 5.57594e-11 1.45484e-11 1.45484e-11 0 9.93965e-28 0 1.78345e-10 0 0 
1540.38 1.39666e-13 0 0 0 0 0 5.56709e-11 1.45253e-11 1.45253e-11 0 9.92387e-28 0 1.78345e-10 0 0 
1540.43 1.39666e-13 0 0 0 0 0 5.56709e-11 1.45253e-11 1.45253e-11 0 9.92387e-28 0 1.78345e-10 0 0 
1540.49 1.39666e-13 0 0 0 0 0 5.56709e-11 1.45253e-11 1.45253e-11 0 9.92387e-28 0 1.78345e-10 0 0 
1540.54 1.39666e-13 0 0 0 0 0 5.56709e-11 1.45253e-11 1.45253e-11 0 9.92387e-28 0 1.78345e-10 0 0 
1540.6 1.39444e-13 0 0 0 0 0 5.55824e-11 1.45022e-11 1.45022e-11 0 9.90809e-28 0 1.78345e-10 0 0 
1540.65 1.39444e-13 0 0 0 0 0 5.55824e-11 1.45022e-11 1.45022e-11 0 9.90809e-28 0 1.78345e-10 0 0 
1540.71 1.39222e-13 0 0 0 0 0 5.54939e-11 1.44791e-11 1.44791e-11 0 9.89232e-28 0 1.78345e-10 0 0 
1540.76 1.3789e-13 0 0 0 0 0 5.49628e-11 1.43405e-11 1.43405e-11 0 9.79765e-28 0 1.78345e-10 0 0 
1540.82 1.3789e-13 0 0 0 0 0 5.49628e-11 1.43405e-11 1.43405e-11 0 9.79765e-28 0 1.78345e-10 0 0 
1540.87 1.38112e-13 0 0 0 0 0 5.50513e-11 1.43636e-11 1.43636e-11 0 9.81343e-28 0 1.78345e-10 0 0 
1540.93 1.37668e-13 0 0 0 0 0 5.48743e-11 1.43174e-11 1.43174e-11 0 9.78188e-28 0 1.78345e-10 0 0 
1540.98 1.37446e-13 0 0 0 0 0 5.47858e-11 1.42943e-11 1.42943e-11 0 9.7661e-28 0 1.78345e-10 0 0 
1541.04 1.37446e-13 0 0 0 0 0 5.47858e-11 1.42943e-11 1.42943e-11 0 9.7661e-28 0 1.78345e-10 0 0 
1541.09 1.37002e-13 0 0 0 0 0 5.46088e-11 1.42482e-11 1.42482e-11 0 9.73454e-28 0 1.78345e-10 0 0 
1541.15 1.36335e-13 0 0 0 0 0 5.43433e-11 1.41789e-11 1.41789e-11 0 9.68721e-28 0 1.78345e-10 0 0 
1541.2 1.36335e-13 0 0 0 0 0 5.43433e-11 1.41789e-11 1.41789e-11 0 9.68721e-28 0 1.78345e-10 0 0 
1541.26 1.36113e-13 0 0 0 0 0 5.42548e-11 1.41558e-11 1.41558e-11 0 9.67143e-28 0 1.78345e-10 0 0 
1541.31 1.35891e-13 0 0 0 0 0 5.41663e-11 1.41327e-11 1.41327e-11 0 9.65566e-28 0 1.78345e-10 0 0 
1541.37 1.35891e-13 0 0 0 0 0 5.41663e-11 1.41327e-11 1.41327e-11 0 9.65566e-28 0 1.78345e-10 0 0 
1541.42 1.35891e-13 0 0 0 0 0 5.41663e-11 1.41327e-11 1.41327e-11 0 9.65566e-28 0 1.78345e-10 0 0 
1541.48 1.35891e-13 0 0 0 0 0 5.41663e-11 1.41327e-11 1.41327e-11 0 9.65566e-28 0 1.78345e-10 0 0 
1541.53 1.35447e-13 0 0 0 0 0 5.39893e-11 1.40865e-11 1.40865e-11 0 9.6241e-28 0 1.78345e-10 0 0 
1541.59 1.35447e-13 0 0 0 0 0 5.39893e-11 1.40865e-11 1.40865e-11 0 9.6241e-28 0 1.78345e-10 0 0 
1541.64 1.35225e-13 0 0 0 0 0 5.39008e-11 1.40634e-11 1.40634e-11 0 9.60833e-28 0 1.78345e-10 0 0 
1541.7 1.35447e-13 0 0 0 0 0 5.39893e-11 1.40865e-11 1.40865e-11 0 9.6241e-28 0 1.78345e-10 0 0 
1541.75 1.35447e-13 0 0 0 0 0 5.39893e-11 1.40865e-11 1.40865e-11 0 9.6241e-28 0 1.78345e-10 0 0 
1541.81 1.34337e-13 0 0 0 0 0 5.35467e-11 1.3971e-11 1.3971e-11 0 9.54522e-28 0 1.78345e-10 0 0 
1541.86 1.34115e-13 0 0 0 0 0 5.34582e-11 1.3948e-11 1.3948e-11 0 9.52944e-28 0 1.78345e-10 0 0 
1541.92 1.34337e-13 0 0 0 0 0 5.35467e-11 1.3971e-11 1.3971e-11 0 9.54522e-28 0 1.78345e-10 0 0 
1541.97 1.34559e-13 0 0 0 0 0 5.36352e-11 1.39941e-11 1.39941e-11 0 9.56099e-28 0 1.78345e-10 0 0 
1542.03 1.35003e-13 0 0 0 0 0 5.38122e-11 1.40403e-11 1.40403e-11 0 9.59255e-28 0 1.78345e-10 0 0 
1542.08 1.35225e-13 0 0 0 0 0 5.39008e-11 1.40634e-11 1.40634e-11 0 9.60833e-28 0 1.78345e-10 0 0 
1542.14 1.35003e-13 0 0 0 0 0 5.38122e-11 1.40403e-11 1.40403e-11 0 9.59255e-28 0 1.78345e-10 0 0 
1542.19 1.35225e-13 0 0 0 0 0 5.39008e-11 1.40634e-11 1.40634e-11 0 9.60833e-28 0 1.78345e-10 0 0 
1542.25 1.35891e-13 0 0 0 0 0 5.41663e-11 1.41327e-11 1.41327e-11 0 9.65566e-28 0 1.78345e-10 0 0 
1542.3 1.36557e-13 0 0 0 0 0 5.44318e-11 1.4202e-11 1.4202e-11 0 9.70299e-28 0 1.78345e-10 0 0 
1542.36 1.36335e-13 0 0 0 0 0 5.43433e-11 1.41789e-11 1.41789e-11 0 9.68721e-28 0 1.78345e-10 0 0 
1542.41 1.35447e-13 0 0 0 0 0 5.39893e-11 1.40865e-11 1.40865e-11 0 9.6241e-28 0 1.78345e-10 0 0 
1542.47 1.35225e-13 0 0 0 0 0 5.39008e-11 1.40634e-11 1.40634e-11 0 9.60833e-28 0 1.78345e-10 0 0 
1542.52 1.35225e-13 0 0 0 0 0 5.39008e-11 1.40634e-11 1.40634e-11 0 9.60833e-28 0 1.78345e-10 0 0 
1542.58 1.34781e-13 0 0 0 0 0 5.37237e-11 1.40172e-11 1.40172e-11 0 9.57677e-28 0 1.78345e-10 0 0 
1542.63 1.34115e-13 0 0 0 0 0 5.34582e-11 1.3948e-11 1.3948e-11 0 9.52944e-28 0 1.78345e-10 0 0 
1542.69 1.33671e-13 0 0 0 0 0 5.32812e-11 1.39018e-11 1.39018e-11 0 9.49789e-28 0 1.78345e-10 0 0 
1542.74 1.33449e-13 0 0 0 0 0 5.31927e-11 1.38787e-11 1.38787e-11 0 9.48211e-28 0 1.78345e-10 0 0 
1542.8 1.33005e-13 0 0 0 0 0 5.30157e-11 1.38325e-11 1.38325e-11 0 9.45055e-28 0 1.78345e-10 0 0 
1542.85 1.32783e-13 0 0 0 0 0 5.29272e-11 1.38094e-11 1.38094e-11 0 9.43478e-28 0 1.78345e-10 0 0 
1542.91 1.32561e-13 0 0 0 0 0 5.28387e-11 1.37863e-11 1.37863e-11 0 9.419e-28 0 1.78345e-10 0 0 
1542.96 1.32339e-13 0 0 0 0 0 5.27502e-11 1.37632e-11 1.37632e-11 0 9.40322e-28 0 1.78345e-10 0 0 
1543.02 1.32561e-13 0 0 0 0 0 5.28387e-11 1.37863e-11 1.37863e-11 0 9.419e-28 0 1.78345e-10 0 0 
1543.07 1.3145e-13 0 0 0 0 0 5.23961e-11 1.36708e-11 1.36708e-11 0 9.34011e-28 0 1.78345e-10 0 0 
1543.13 1.3034e-13 0 0 0 0 0 5.19536e-11 1.35554e-11 1.35554e-11 0 9.26123e-28 0 1.78345e-10 0 0 
1543.18 1.30562e-13 0 0 0 0 0 5.20421e-11 1.35785e-11 1.35785e-11 0 9.277e-28 0 1.78345e-10 0 0 
1543.24 1.30118e-13 0 0 0 0 0 5.18651e-11 1.35323e-11 1.35323e-11 0 9.24545e-28 0 1.78345e-10 0 0 
1543.29 1.29452e-13 0 0 0 0 0 5.15996e-11 1.3463e-11 1.3463e-11 0 9.19812e-28 0 1.78345e-10 0 0 
1543.35 1.29674e-13 0 0 0 0 0 5.16881e-11 1.34861e-11 1.34861e-11 0 9.2139e-28 0 1.78345e-10 0 0 
1543.4 1.29452e-13 0 0 0 0 0 5.15996e-11 1.3463e-11 1.3463e-11 0 9.19812e-28 0 1.78345e-10 0 0 
1543.46 1.29008e-13 0 0 0 0 0 5.14226e-11 1.34168e-11 1.34168e-11 0 9.16656e-28 0 1.78345e-10 0 0 
1543.51 1.28342e-13 0 0 0 0 0 5.1157e-11 1.33475e-11 1.33475e-11 0 9.11923e-28 0 1.78345e-10 0 0 
1543.57 1.26787e-13 0 0 0 0 0 5.05375e-11 1.31859e-11 1.31859e-11 0 9.00879e-28 0 1.78345e-10 0 0 
1543.62 1.26343e-13 0 0 0 0 0 5.03605e-11 1.31397e-11 1.31397e-11 0 8.97724e-28 0 1.78345e-10 0 0 
1543.68 1.26787e-13 0 0 0 0 0 5.05375e-11 1.31859e-11 1.31859e-11 0 9.00879e-28 0 1.78345e-10 0 0 
1543.73 1.26787e-13 0 0 0 0 0 5.05375e-11 1.31859e-11 1.31859e-11 0 9.00879e-28 0 1.78345e-10 0 0 
1543.79 1.26565e-13 0 0 0 0 0 5.0449e-11 1.31628e-11 1.31628e-11 0 8.99301e-28 0 1.78345e-10 0 0 
1543.84 1.25677e-13 0 0 0 0 0 5.0095e-11 1.30704e-11 1.30704e-11 0 8.92991e-28 0 1.78345e-10 0 0 
1543.9 1.24345e-13 0 0 0 0 0 4.95639e-11 1.29319e-11 1.29319e-11 0 8.83524e-28 0 1.78345e-10 0 0 
1543.95 1.24345e-13 0 0 0 0 0 4.95639e-11 1.29319e-11 1.29319e-11 0 8.83524e-28 0 1.78345e-10 0 0 
1544.01 1.24345e-13 0 0 0 0 0 4.95639e-11 1.29319e-11 1.29319e-11 0 8.83524e-28 0 1.78345e-10 0 0 
1544.06 1.24345e-13 0 0 0 0 0 4.95639e-11 1.29319e-11 1.29319e-11 0 8.83524e-28 0 1.78345e-10 0 0 
1544.12 1.23901e-13 0 0 0 0 0 4.93869e-11 1.28857e-11 1.28857e-11 0 8.80369e-28 0 1.78345e-10 0 0 
1544.17 1.23013e-13 0 0 0 0 0 4.90329e-11 1.27933e-11 1.27933e-11 0 8.74058e-28 0 1.78345e-10 0 0 
1544.23 1.23235e-13 0 0 0 0 0 4.91214e-11 1.28164e-11 1.28164e-11 0 8.75636e-28 0 1.78345e-10 0 0 
1544.28 1.22569e-13 0 0 0 0 0 4.88559e-11 1.27471e-11 1.27471e-11 0 8.70902e-28 0 1.78345e-10 0 0 
1544.34 1.22125e-13 0 0 0 0 0 4.86788e-11 1.2701e-11 1.2701e-11 0 8.67747e-28 0 1.78345e-10 0 0 
1544.39 1.22791e-13 0 0 0 0 0 4.89444e-11 1.27702e-11 1.27702e-11 0 8.7248e-28 0 1.78345e-10 0 0 
1544.45 1.22347e-13 0 0 0 0 0 4.87673e-11 1.2724e-11 1.2724e-11 0 8.69325e-28 0 1.78345e-10 0 0 
1544.5 1.21458e-13 0 0 0 0 0 4.84133e-11 1.26317e-11 1.26317e-11 0 8.63014e-28 0 1.78345e-10 0 0 
1544.56 1.20792e-13 0 0 0 0 0 4.81478e-11 1.25624e-11 1.25624e-11 0 8.58281e-28 0 1.78345e-10 0 0 
1544.61 1.19904e-13 0 0 0 0 0 4.77938e-11 1.247e-11 1.247e-11 0 8.5197e-28 0 1.78345e-10 0 0 
1544.67 1.20126e-13 0 0 0 0 0 4.78823e-11 1.24931e-11 1.24931e-11 0 8.53547e-28 0 1.78345e-10 0 0 
1544.72 1.2057e-13 0 0 0 0 0 4.80593e-11 1.25393e-11 1.25393e-11 0 8.56703e-28 0 1.78345e-10 0 0 
1544.78 1.20348e-13 0 0 0 0 0 4.79708e-11 1.25162e-11 1.25162e-11 0 8.55125e-28 0 1.78345e-10 0 0 
1544.83 1.20126e-13 0 0 0 0 0 4.78823e-11 1.24931e-11 1.24931e-11 0 8.53547e-28 0 1.78345e-10 0 0 
1544.89 1.19904e-13 0 0 0 0 0 4.77938e-11 1.247e-11 1.247e-11 0 8.5197e-28 0 1.78345e-10 0 0 
1544.94 1.20126e-13 0 0 0 0 0 4.78823e-11 1.24931e-11 1.24931e-11 0 8.53547e-28 0 1.78345e-10 0 0 
1545 1.20348e-13 0 0 0 0 0 4.79708e-11 1.25162e-11 1.25162e-11 0 8.55125e-28 0 1.78345e-10 0 0 
1545 1.20792e-13 0 0 0 0 0 4.81478e-11 1.25624e-11 1.25624e-11 0 8.58281e-28 0 1.78345e-10 0 0 
1545.06 1.20348e-13 0 0 0 0 0 4.79708e-11 1.25162e-11 1.25162e-11 0 8.55125e-28 0 1.78345e-10 0 0 
1545.11 1.19682e-13 0 0 0 0 0 4.77053e-11 1.24469e-11 1.24469e-11 0 8.50392e-28 0 1.78345e-10 0 0 
1545.17 1.1946e-13 0 0 0 0 0 4.76168e-11 1.24238e-11 1.24238e-11 0 8.48814e-28 0 1.78345e-10 0 0 
1545.22 1.19238e-13 0 0 0 0 0 4.75282e-11 1.24007e-11 1.24007e-11 0 8.47237e-28 0 1.78345e-10 0 0 
1545.28 1.19016e-13 0 0 0 0 0 4.74397e-11 1.23777e-11 1.23777e-11 0 8.45659e-28 0 1.78345e-10 0 0 
1545.33 1.18794e-13 0 0 0 0 0 4.73512e-11 1.23546e-11 1.23546e-11 0 8.44081e-28 0 1.78345e-10 0 0 
1545.39 1.1835e-13 0 0 0 0 0 4.71742e-11 1.23084e-11 1.23084e-11 0 8.40926e-28 0 1.78345e-10 0 0 
1545.44 1.17906e-13 0 0 0 0 0 4.69972e-11 1.22622e-11 1.22622e-11 0 8.3777e-28 0 1.78345e-10 0 0 
1545.5 1.17684e-13 0 0 0 0 0 4.69087e-11 1.22391e-11 1.22391e-11 0 8.36193e-28 0 1.78345e-10 0 0 
1545.55 1.17906e-13 0 0 0 0 0 4.69972e-11 1.22622e-11 1.22622e-11 0 8.3777e-28 0 1.78345e-10 0 0 
1545.61 1.18128e-13 0 0 0 0 0 4.70857e-11 1.22853e-11 1.22853e-11 0 8.39348e-28 0 1.78345e-10 0 0 
1545.66 1.18128e-13 0 0 0 0 0 4.70857e-11 1.22853e-11 1.22853e-11 0 8.39348e-28 0 1.78345e-10 0 0 
1545.72 1.18128e-13 0 0 0 0 0 4.70857e-11 1.22853e-11 1.22853e-11 0 8.39348e-28 0 1.78345e-10 0 0 
1545.77 1.17684e-13 0 0 0 0 0 4.69087e-11 1.22391e-11 1.22391e-11 0 8.36193e-28 0 1.78345e-10 0 0 
1545.83 1.1724e-13 0 0 0 0 0 4.67317e-11 1.21929e-11 1.21929e-11 0 8.33037e-28 0 1.78345e-10 0 0 
1545.88 1.17018e-13 0 0 0 0 0 4.66432e-11 1.21698e-11 1.21698e-11 0 8.31459e-28 0 1.78345e-10 0 0 
1545.94 1.16573e-13 0 0 0 0 0 4.64662e-11 1.21236e-11 1.21236e-11 0 8.28304e-28 0 1.78345e-10 0 0 
1545.99 1.16351e-13 0 0 0 0 0 4.63777e-11 1.21005e-11 1.21005e-11 0 8.26726e-28 0 1.78345e-10 0 0 
1546.05 1.16129e-13 0 0 0 0 0 4.62892e-11 1.20775e-11 1.20775e-11 0 8.25149e-28 0 1.78345e-10 0 0 
1546.1 1.15463e-13 0 0 0 0 0 4.60236e-11 1.20082e-11 1.20082e-11 0 8.20415e-28 0 1.78345e-10 0 0 
1546.16 1.15019e-13 0 0 0 0 0 4.58466e-11 1.1962e-11 1.1962e-11 0 8.1726e-28 0 1.78345e-10 0 0 
1546.21 1.14797e-13 0 0 0 0 0 4.57581e-11 1.19389e-11 1.19389e-11 0 8.15682e-28 0 1.78345e-10 0 0 
1546.27 1.13909e-13 0 0 0 0 0 4.54041e-11 1.18465e-11 1.18465e-11 0 8.09371e-28 0 1.78345e-10 0 0 
1546.32 1.13021e-13 0 0 0 0 0 4.50501e-11 1.17542e-11 1.17542e-11 0 8.0306e-28 0 1.78345e-10 0 0 
1546.38 1.13243e-13 0 0 0 0 0 4.51386e-11 1.17772e-11 1.17772e-11 0 8.04638e-28 0 1.78345e-10 0 0 
1546.43 1.13465e-13 0 0 0 0 0 4.52271e-11 1.18003e-11 1.18003e-11 0 8.06216e-28 0 1.78345e-10 0 0 
1546.49 1.13243e-13 0 0 0 0 0 4.51386e-11 1.17772e-11 1.17772e-11 0 8.04638e-28 0 1.78345e-10 0 0 
1546.54 1.12799e-13 0 0 0 0 0 4.49615e-11 1.17311e-11 1.17311e-11 0 8.01483e-28 0 1.78345e-10 0 0 
1546.6 1.1191e-13 0 0 0 0 0 4.46075e-11 1.16387e-11 1.16387e-11 0 7.95172e-28 0 1.78345e-10 0 0 
1546.65 1.11688e-13 0 0 0 0 0 4.4519e-11 1.16156e-11 1.16156e-11 0 7.93594e-28 0 1.78345e-10 0 0 
1546.71 1.11466e-13 0 0 0 0 0 4.44305e-11 1.15925e-11 1.15925e-11 0 7.92016e-28 0 1.78345e-10 0 0 
1546.76 1.10578e-13 0 0 0 0 0 4.40765e-11 1.15001e-11 1.15001e-11 0 7.85705e-28 0 1.78345e-10 0 0 
1546.82 1.09912e-13 0 0 0 0 0 4.3811e-11 1.14309e-11 1.14309e-11 0 7.80972e-28 0 1.78345e-10 0 0 
1546.87 1.09468e-13 0 0 0 0 0 4.36339e-11 1.13847e-11 1.13847e-11 0 7.77817e-28 0 1.78345e-10 0 0 
1546.93 1.09246e-13 0 0 0 0 0 4.35454e-11 1.13616e-11 1.13616e-11 0 7.76239e-28 0 1.78345e-10 0 0 
1546.98 1.09246e-13 0 0 0 0 0 4.35454e-11 1.13616e-11 1.13616e-11 0 7.76239e-28 0 1.78345e-10 0 0 
1547.04 1.09024e-13 0 0 0 0 0 4.34569e-11 1.13385e-11 1.13385e-11 0 7.74661e-28 0 1.78345e-10 0 0 
1547.09 1.09024e-13 0 0 0 0 0 4.34569e-11 1.13385e-11 1.13385e-11 0 7.74661e-28 0 1.78345e-10 0 0 
1547.15 1.08802e-13 0 0 0 0 0 4.33684e-11 1.13154e-11 1.13154e-11 0 7.73084e-28 0 1.78345e-10 0 0 
1547.2 1.08358e-13 0 0 0 0 0 4.31914e-11 1.12692e-11 1.12692e-11 0 7.69928e-28 0 1.78345e-10 0 0 
1547.26 1.0858e-13 0 0 0 0 0 4.32799e-11 1.12923e-11 1.12923e-11 0 7.71506e-28 0 1.78345e-10 0 0 
1547.31 1.08136e-13 0 0 0 0 0 4.31029e-11 1.12461e-11 1.12461e-11 0 7.68351e-28 0 1.78345e-10 0 0 
1547.37 1.07025e-13 0 0 0 0 0 4.26604e-11 1.11307e-11 1.11307e-11 0 7.60462e-28 0 1.78345e-10 0 0 
1547.42 1.06581e-13 0 0 0 0 0 4.24834e-11 1.10845e-11 1.10845e-11 0 7.57306e-28 0 1.78345e-10 0 0 
1547.48 1.06359e-13 0 0 0 0 0 4.23948e-11 1.10614e-11 1.10614e-11 0 7.55729e-28 0 1.78345e-10 0 0 
1547.53 1.06137e-13 0 0 0 0 0 4.23063e-11 1.10383e-11 1.10383e-11 0 7.54151e-28 0 1.78345e-10 0 0 
1547.59 1.05471e-13 0 0 0 0 0 4.20408e-11 1.0969e-11 1.0969e-11 0 7.49418e-28 0 1.78345e-10 0 0 
1547.64 1.05693e-13 0 0 0 0 0 4.21293e-11 1.09921e-11 1.09921e-11 0 7.50996e-28 0 1.78345e-10 0 0 
1547.7 1.06581e-13 0 0 0 0 0 4.24834e-11 1.10845e-11 1.10845e-11 0 7.57306e-28 0 1.78345e-10 0 0 
1547.75 1.05693e-13 0 0 0 0 0 4.21293e-11 1.09921e-11 1.09921e-11 0 7.50996e-28 0 1.78345e-10 0 0 
1547.81 1.05027e-13 0 0 0 0 0 4.18638e-11 1.09228e-11 1.09228e-11 0 7.46262e-28 0 1.78345e-10 0 0 
1547.86 1.05693e-13 0 0 0 0 0 4.21293e-11 1.09921e-11 1.09921e-11 0 7.50996e-28 0 1.78345e-10 0 0 
1547.92 1.05471e-13 0 0 0 0 0 4.20408e-11 1.0969e-11 1.0969e-11 0 7.49418e-28 0 1.78345e-10 0 0 
1547.97 1.05027e-13 0 0 0 0 0 4.18638e-11 1.09228e-11 1.09228e-11 0 7.46262e-28 0 1.78345e-10 0 0 
1548.03 1.05693e-13 0 0 0 0 0 4.21293e-11 1.09921e-11 1.09921e-11 0 7.50996e-28 0 1.78345e-10 0 0 
1548.08 1.05693e-13 0 0 0 0 0 4.21293e-11 1.09921e-11 1.09921e-11 0 7.50996e-28 0 1.78345e-10 0 0 
1548.14 1.05027e-13 0 0 0 0 0 4.18638e-11 1.09228e-11 1.09228e-11 0 7.46262e-28 0 1.78345e-10 0 0 
1548.19 1.05027e-13 0 0 0 0 0 4.18638e-11 1.09228e-11 1.09228e-11 0 7.46262e-28 0 1.78345e-10 0 0 
1548.25 1.05693e-13 0 0 0 0 0 4.21293e-11 1.09921e-11 1.09921e-11 0 7.50996e-28 0 1.78345e-10 0 0 
1548.3 1.06137e-13 0 0 0 0 0 4.23063e-11 1.10383e-11 1.10383e-11 0 7.54151e-28 0 1.78345e-10 0 0 
1548.36 1.05915e-13 0 0 0 0 0 4.22178e-11 1.10152e-11 1.10152e-11 0 7.52573e-28 0 1.78345e-10 0 0 
1548.41 1.06359e-13 0 0 0 0 0 4.23948e-11 1.10614e-11 1.10614e-11 0 7.55729e-28 0 1.78345e-10 0 0 
1548.47 1.06803e-13 0 0 0 0 0 4.25719e-11 1.11076e-11 1.11076e-11 0 7.58884e-28 0 1.78345e-10 0 0 
1548.52 1.06803e-13 0 0 0 0 0 4.25719e-11 1.11076e-11 1.11076e-11 0 7.58884e-28 0 1.78345e-10 0 0 
1548.58 1.06359e-13 0 0 0 0 0 4.23948e-11 1.10614e-11 1.10614e-11 0 7.55729e-28 0 1.78345e-10 0 0 
1548.63 1.05693e-13 0 0 0 0 0 4.21293e-11 1.09921e-11 1.09921e-11 0 7.50996e-28 0 1.78345e-10 0 0 
1548.69 1.05693e-13 0 0 0 0 0 4.21293e-11 1.09921e-11 1.09921e-11 0 7.50996e-28 0 1.78345e-10 0 0 
1548.74 1.05471e-13 0 0 0 0 0 4.20408e-11 1.0969e-11 1.0969e-11 0 7.49418e-28 0 1.78345e-10 0 0 
1548.8 1.05027e-13 0 0 0 0 0 4.18638e-11 1.09228e-11 1.09228e-11 0 7.46262e-28 0 1.78345e-10 0 0 
1548.85 1.04361e-13 0 0 0 0 0 4.15983e-11 1.08535e-11 1.08535e-11 0 7.41529e-28 0 1.78345e-10 0 0 
1548.91 1.04139e-13 0 0 0 0 0 4.15098e-11 1.08304e-11 1.08304e-11 0 7.39952e-28 0 1.78345e-10 0 0 
1548.96 1.04361e-13 0 0 0 0 0 4.15983e-11 1.08535e-11 1.08535e-11 0 7.41529e-28 0 1.78345e-10 0 0 
1549.02 1.04361e-13 0 0 0 0 0 4.15983e-11 1.08535e-11 1.08535e-11 0 7.41529e-28 0 1.78345e-10 0 0 
1549.07 1.03917e-13 0 0 0 0 0 4.14213e-11 1.08074e-11 1.08074e-11 0 7.38374e-28 0 1.78345e-10 0 0 
1549.13 1.03917e-13 0 0 0 0 0 4.14213e-11 1.08074e-11 1.08074e-11 0 7.38374e-28 0 1.78345e-10 0 0 
1549.18 1.04583e-13 0 0 0 0 0 4.16868e-11 1.08766e-11 1.08766e-11 0 7.43107e-28 0 1.78345e-10 0 0 
1549.24 1.04583e-13 0 0 0 0 0 4.16868e-11 1.08766e-11 1.08766e-11 0 7.43107e-28 0 1.78345e-10 0 0 
1549.29 1.04361e-13 0 0 0 0 0 4.15983e-11 1.08535e-11 1.08535e-11 0 7.41529e-28 0 1.78345e-10 0 0 
1549.35 1.04139e-13 0 0 0 0 0 4.15098e-11 1.08304e-11 1.08304e-11 0 7.39952e-28 0 1.78345e-10 0 0 
1549.4 1.03251e-13 0 0 0 0 0 4.11557e-11 1.07381e-11 1.07381e-11 0 7.33641e-28 0 1.78345e-10 0 0 
1549.46 1.02363e-13 0 0 0 0 0 4.08017e-11 1.06457e-11 1.06457e-11 0 7.2733e-28 0 1.78345e-10 0 0 
1549.51 1.02363e-13 0 0 0 0 0 4.08017e-11 1.06457e-11 1.06457e-11 0 7.2733e-28 0 1.78345e-10 0 0 
1549.57 1.02585e-13 0 0 0 0 0 4.08902e-11 1.06688e-11 1.06688e-11 0 7.28907e-28 0 1.78345e-10 0 0 
1549.62 1.01696e-13 0 0 0 0 0 4.05362e-11 1.05764e-11 1.05764e-11 0 7.22597e-28 0 1.78345e-10 0 0 
1549.68 1.0103e-13 0 0 0 0 0 4.02707e-11 1.05072e-11 1.05072e-11 0 7.17863e-28 0 1.78345e-10 0 0 
1549.73 1.01252e-13 0 0 0 0 0 4.03592e-11 1.05302e-11 1.05302e-11 0 7.19441e-28 0 1.78345e-10 0 0 
1549.79 1.01474e-13 0 0 0 0 0 4.04477e-11 1.05533e-11 1.05533e-11 0 7.21019e-28 0 1.78345e-10 0 0 
1549.84 1.0103e-13 0 0 0 0 0 4.02707e-11 1.05072e-11 1.05072e-11 0 7.17863e-28 0 1.78345e-10 0 0 
1549.9 9.99201e-14 0 0 0 0 0 3.98281e-11 1.03917e-11 1.03917e-11 0 7.09975e-28 0 1.78345e-10 0 0 
1549.95 9.90319e-14 0 0 0 0 0 3.94741e-11 1.02993e-11 1.02993e-11 0 7.03664e-28 0 1.78345e-10 0 0 
1550.01 9.92539e-14 0 0 0 0 0 3.95626e-11 1.03224e-11 1.03224e-11 0 7.05242e-28 0 1.78345e-10 0 0 
1550.06 9.9476e-14 0 0 0 0 0 3.96511e-11 1.03455e-11 1.03455e-11 0 7.06819e-28 0 1.78345e-10 0 0 
1550.12 9.88098e-14 0 0 0 0 0 3.93856e-11 1.02762e-11 1.02762e-11 0 7.02086e-28 0 1.78345e-10 0 0 
1550.17 9.88098e-14 0 0 0 0 0 3.93856e-11 1.02762e-11 1.02762e-11 0 7.02086e-28 0 1.78345e-10 0 0 
1550.23 9.92539e-14 0 0 0 0 0 3.95626e-11 1.03224e-11 1.03224e-11 0 7.05242e-28 0 1.78345e-10 0 0 
1550.28 9.9476e-14 0 0 0 0 0 3.96511e-11 1.03455e-11 1.03455e-11 0 7.06819e-28 0 1.78345e-10 0 0 
1550.34 9.9698e-14 0 0 0 0 0 3.97396e-11 1.03686e-11 1.03686e-11 0 7.08397e-28 0 1.78345e-10 0 0 
1550.39 9.9476e-14 0 0 0 0 0 3.96511e-11 1.03455e-11 1.03455e-11 0 7.06819e-28 0 1.78345e-10 0 0 
1550.45 9.88098e-14 0 0 0 0 0 3.93856e-11 1.02762e-11 1.02762e-11 0 7.02086e-28 0 1.78345e-10 0 0 
1550.5 9.83658e-14 0 0 0 0 0 3.92086e-11 1.023e-11 1.023e-11 0 6.98931e-28 0 1.78345e-10 0 0 
1550.56 9.81437e-14 0 0 0 0 0 3.91201e-11 1.02069e-11 1.02069e-11 0 6.97353e-28 0 1.78345e-10 0 0 
1550.61 9.76996e-14 0 0 0 0 0 3.89431e-11 1.01608e-11 1.01608e-11 0 6.94198e-28 0 1.78345e-10 0 0 
1550.67 9.70335e-14 0 0 0 0 0 3.86776e-11 1.00915e-11 1.00915e-11 0 6.89464e-28 0 1.78345e-10 0 0 
1550.72 9.68114e-14 0 0 0 0 0 3.8589e-11 1.00684e-11 1.00684e-11 0 6.87887e-28 0 1.78345e-10 0 0 
1550.78 9.65894e-14 0 0 0 0 0 3.85005e-11 1.00453e-11 1.00453e-11 0 6.86309e-28 0 1.78345e-10 0 0 
1550.83 9.68114e-14 0 0 0 0 0 3.8589e-11 1.00684e-11 1.00684e-11 0 6.87887e-28 0 1.78345e-10 0 0 
1550.89 9.65894e-14 0 0 0 0 0 3.85005e-11 1.00453e-11 1.00453e-11 0 6.86309e-28 0 1.78345e-10 0 0 
1550.94 9.63674e-14 0 0 0 0 0 3.8412e-11 1.00222e-11 1.00222e-11 0 6.84731e-28 0 1.78345e-10 0 0 
1551 9.68114e-14 0 0 0 0 0 3.8589e-11 1.00684e-11 1.00684e-11 0 6.87887e-28 0 1.78345e-10 0 0 
1551 0.00245628 -0.0048291 -0.0048291 0 -2.68882e-17 0 3.8578e-11 -2.17121 -2.17121 0 -5.63848e-15 0 1.78345e-10 0 0 
1551.06 0.00245628 -0.0048291 -0.0048291 0 -2.68882e-17 0 3.84881e-11 -2.17121 -2.17121 0 -5.63848e-15 0 1.78917e-10 0 0 
1551.11 0.00245628 -0.0048291 -0.0048291 0 -2.68882e-17 0 3.82183e-11 -2.17121 -2.17121 0 -5.63848e-15 0 1.79488e-10 0 0 
1551.17 0.00245628 -0.0048291 -0.0048291 0 -2.68882e-17 0 3.81284e-11 -2.17121 -2.17121 0 -5.63848e-15 0 1.8006e-10 0 0 
1551.22 0.00245628 -0.0048291 -0.0048291 0 -2.68882e-17 0 3.81284e-11 -2.17121 -2.17121 0 -5.63848e-15 0 1.80631e-10 0 0 
1551.28 0.00245628 -0.0048291 -0.0048291 0 -2.68882e-17 0 3.79485e-11 -2.17121 -2.17121 0 -5.63848e-15 0 1.81203e-10 0 0 
1551.33 0.00245628 -0.0048291 -0.0048291 0 -2.68882e-17 0 3.79485e-11 -2.17121 -2.17121 0 -5.63848e-15 0 1.81774e-10 0 0 
1551.39 0.00245628 -0.0048291 -0.0048291 0 -2.68882e-17 0 3.77687e-11 -2.17121 -2.17121 0 -5.63848e-15 0 1.82346e-10 0 0 
1551.44 0.00245628 -0.0048291 -0.0048291 0 -2.68882e-17 0 3.74989e-11 -2.17121 -2.17121 0 -5.63848e-15 0 1.82917e-10 0 0 
1551.5 0.00245628 -0.0048291 -0.0048291 0 -2.68882e-17 0 3.76787e-11 -2.17121 -2.17121 0 -5.63848e-15 0 1.83489e-10 0 0 
1551.56 0.00245628 -0.0048291 -0.0048291 0 -2.68882e-17 0 3.78586e-11 -2.17121 -2.17121 0 -5.63848e-15 0 1.8406e-10 0 0 
1551.61 0.00245628 -0.0048291 -0.0048291 0 -2.68882e-17 0 3.78586e-11 -2.17121 -2.17121 0 -5.63848e-15 0 1.84632e-10 0 0 
1551.67 0.00245628 -0.0048291 -0.0048291 0 -2.68882e-17 0 3.75888e-11 -2.17121 -2.17121 0 -5.63848e-15 0 1.85203e-10 0 0 
1551.72 0.00245628 -0.0048291 -0.0048291 0 -2.68882e-17 0 3.7319e-11 -2.17121 -2.17121 0 -5.63848e-15 0 1.85775e-10 0 0 
1551.78 0.00245628 -0.0048291 -0.0048291 0 -2.68882e-17 0 3.7319e-11 -2.17121 -2.17121 0 -5.63848e-15 0 1.86346e-10 0 0 
1551.83 0.00245628 -0.0048291 -0.0048291 0 -2.68882e-17 0 3.7409e-11 -2.17121 -2.17121 0 -5.63848e-15 0 1.86918e-10 0 0 
1551.89 0.00245628 -0.0048291 -0.0048291 0 -2.68882e-17 0 3.7409e-11 -2.17121 -2.17121 0 -5.63848e-15 0 1.87489e-10 0 0 
1551.94 0.00245628 -0.0048291 -0.0048291 0 -2.68882e-17 0 3.72291e-11 -2.17121 -2.17121 0 -5.63848e-15 0 1.8806e-10 0 0 
1552 0.00245628 -0.0048291 -0.0048291 0 -2.68882e-17 0 3.72291e-11 -2.17121 -2.17121 0 -5.63848e-15 0 1.88632e-10 0 0 
1552.06 0.00245628 -0.0048291 -0.0048291 0 -2.68882e-17 0 3.7319e-11 -2.17121 -2.17121 0 -5.63848e-15 0 1.89203e-10 0 0 
1552.11 0.00245628 -0.0048291 -0.0048291 0 -2.68882e-17 0 3.70493e-11 -2.17121 -2.17121 0 -5.63848e-15 0 1.89775e-10 0 0 
1552.17 0.00245628 -0.0048291 -0.0048291 0 -2.68882e-17 0 3.66895e-11 -2.17121 -2.17121 0 -5.63848e-15 0 1.90346e-10 0 0 
1552.22 0.00245628 -0.0048291 -0.0048291 0 -2.68882e-17 0 3.67795e-11 -2.17121 -2.17121 0 -5.63848e-15 0 1.90918e-10 0 0 
1552.28 0.00245628 -0.0048291 -0.0048291 0 -2.68882e-17 0 3.69593e-11 -2.17121 -2.17121 0 -5.63848e-15 0 1.91489e-10 0 0 
1552.33 0.00245628 -0.0048291 -0.0048291 0 -2.68882e-17 0 3.70493e-11 -2.17121 -2.17121 0 -5.63848e-15 0 1.92061e-10 0 0 
1552.39 0.00245628 -0.0048291 -0.0048291 0 -2.68882e-17 0 3.70493e-11 -2.17121 -2.17121 0 -5.63848e-15 0 1.92632e-10 0 0 
1552.44 0.00245628 -0.0048291 -0.0048291 0 -2.68882e-17 0 3.71392e-11 -2.17121 -2.17121 0 -5.63848e-15 0 1.93204e-10 0 0 
1552.5 0.00245628 -0.0048291 -0.0048291 0 -2.68882e-17 0 3.7319e-11 -2.17121 -2.17121 0 -5.63848e-15 0 1.93775e-10 0 0 
1552.56 0.00245628 -0.0048291 -0.0048291 0 -2.68882e-17 0 3.72291e-11 -2.17121 -2.17121 0 -5.63848e-15 0 1.94347e-10 0 0 
1552.61 0.00245628 -0.0048291 -0.0048291 0 -2.68882e-17 0 3.72291e-11 -2.17121 -2.17121 0 -5.63848e-15 0 1.94918e-10 0 0 
1552.67 0.00245628 -0.0048291 -0.0048291 0 -2.68882e-17 0 3.7319e-11 -2.17121 -2.17121 0 -5.63848e-15 0 1.9549e-10 0 0 
1552.72 0.00245628 -0.0048291 -0.0048291 0 -2.68882e-17 0 3.72291e-11 -2.17121 -2.17121 0 -5.63848e-15 0 1.96061e-10 0 0 
1552.78 0.00245628 -0.0048291 -0.0048291 0 -2.68882e-17 0 3.7319e-11 -2.17121 -2.17121 0 -5.63848e-15 0 1.96633e-10 0 0 
1552.83 0.00245628 -0.0048291 -0.0048291 0 -2.68882e-17 0 3.77687e-11 -2.17121 -2.17121 0 -5.63848e-15 0 1.97204e-10 0 0 
1552.89 0.00245628 -0.0048291 -0.0048291 0 -2.68882e-17 0 3.78586e-11 -2.17121 -2.17121 0 -5.63848e-15 0 1.97776e-10 0 0 
1552.94 0.00245628 -0.0048291 -0.0048291 0 -2.68882e-17 0 3.77687e-11 -2.17121 -2.17121 0 -5.63848e-15 0 1.98347e-10 0 0 
1553 0.00245628 -0.0048291 -0.0048291 0 -2.68882e-17 0 3.78586e-11 -2.17121 -2.17121 0 -5.63848e-15 0 1.98919e-10 0 0 
1553 9.32587e-14 0 0 0 0 0 3.71729e-11 9.69891e-12 9.69891e-12 0 6.62643e-28 0 1.98919e-10 0 0 
1553.06 9.28146e-14 0 0 0 0 0 3.69959e-11 9.65272e-12 9.65272e-12 0 6.59488e-28 0 1.98919e-10 0 0 
1553.11 9.25926e-14 0 0 0 0 0 3.69074e-11 9.62963e-12 9.62963e-12 0 6.5791e-28 0 1.98919e-10 0 0 
1553.17 9.21485e-14 0 0 0 0 0 3.67304e-11 9.58345e-12 9.58345e-12 0 6.54755e-28 0 1.98919e-10 0 0 
1553.22 9.19265e-14 0 0 0 0 0 3.66419e-11 9.56035e-12 9.56035e-12 0 6.53177e-28 0 1.98919e-10 0 0 
1553.28 9.21485e-14 0 0 0 0 0 3.67304e-11 9.58345e-12 9.58345e-12 0 6.54755e-28 0 1.98919e-10 0 0 
1553.33 9.21485e-14 0 0 0 0 0 3.67304e-11 9.58345e-12 9.58345e-12 0 6.54755e-28 0 1.98919e-10 0 0 
1553.39 9.21485e-14 0 0 0 0 0 3.67304e-11 9.58345e-12 9.58345e-12 0 6.54755e-28 0 1.98919e-10 0 0 
1553.44 9.17044e-14 0 0 0 0 0 3.65534e-11 9.53726e-12 9.53726e-12 0 6.51599e-28 0 1.98919e-10 0 0 
1553.5 9.12603e-14 0 0 0 0 0 3.63764e-11 9.49107e-12 9.49107e-12 0 6.48444e-28 0 1.98919e-10 0 0 
1553.55 9.05942e-14 0 0 0 0 0 3.61108e-11 9.4218e-12 9.4218e-12 0 6.4371e-28 0 1.98919e-10 0 0 
1553.61 8.99281e-14 0 0 0 0 0 3.58453e-11 9.35252e-12 9.35252e-12 0 6.38977e-28 0 1.98919e-10 0 0 
1553.66 8.99281e-14 0 0 0 0 0 3.58453e-11 9.35252e-12 9.35252e-12 0 6.38977e-28 0 1.98919e-10 0 0 
1553.72 8.9706e-14 0 0 0 0 0 3.57568e-11 9.32943e-12 9.32943e-12 0 6.374e-28 0 1.98919e-10 0 0 
1553.77 8.92619e-14 0 0 0 0 0 3.55798e-11 9.28324e-12 9.28324e-12 0 6.34244e-28 0 1.98919e-10 0 0 
1553.83 8.90399e-14 0 0 0 0 0 3.54913e-11 9.26015e-12 9.26015e-12 0 6.32666e-28 0 1.98919e-10 0 0 
1553.88 8.88178e-14 0 0 0 0 0 3.54028e-11 9.23706e-12 9.23706e-12 0 6.31089e-28 0 1.98919e-10 0 0 
1553.94 8.83738e-14 0 0 0 0 0 3.52258e-11 9.19087e-12 9.19087e-12 0 6.27933e-28 0 1.98919e-10 0 0 
1553.99 8.70415e-14 0 0 0 0 0 3.46947e-11 9.05231e-12 9.05231e-12 0 6.18467e-28 0 1.98919e-10 0 0 
1554.05 8.70415e-14 0 0 0 0 0 3.46947e-11 9.05231e-12 9.05231e-12 0 6.18467e-28 0 1.98919e-10 0 0 
1554.1 8.74856e-14 0 0 0 0 0 3.48717e-11 9.0985e-12 9.0985e-12 0 6.21622e-28 0 1.98919e-10 0 0 
1554.16 8.65974e-14 0 0 0 0 0 3.45177e-11 9.00613e-12 9.00613e-12 0 6.15312e-28 0 1.98919e-10 0 0 
1554.21 8.59313e-14 0 0 0 0 0 3.42522e-11 8.93685e-12 8.93685e-12 0 6.10578e-28 0 1.98919e-10 0 0 
1554.27 8.57092e-14 0 0 0 0 0 3.41637e-11 8.91376e-12 8.91376e-12 0 6.09001e-28 0 1.98919e-10 0 0 
1554.32 8.54872e-14 0 0 0 0 0 3.40752e-11 8.89067e-12 8.89067e-12 0 6.07423e-28 0 1.98919e-10 0 0 
1554.38 8.52651e-14 0 0 0 0 0 3.39867e-11 8.86757e-12 8.86757e-12 0 6.05845e-28 0 1.98919e-10 0 0 
1554.43 8.4599e-14 0 0 0 0 0 3.37212e-11 8.7983e-12 8.7983e-12 0 6.01112e-28 0 1.98919e-10 0 0 
1554.49 8.43769e-14 0 0 0 0 0 3.36327e-11 8.7752e-12 8.7752e-12 0 5.99534e-28 0 1.98919e-10 0 0 
1554.54 8.4821e-14 0 0 0 0 0 3.38097e-11 8.82139e-12 8.82139e-12 0 6.0269e-28 0 1.98919e-10 0 0 
1554.6 8.34888e-14 0 0 0 0 0 3.32786e-11 8.68283e-12 8.68283e-12 0 5.93223e-28 0 1.98919e-10 0 0 
1554.65 8.26006e-14 0 0 0 0 0 3.29246e-11 8.59046e-12 8.59046e-12 0 5.86913e-28 0 1.98919e-10 0 0 
1554.71 8.28226e-14 0 0 0 0 0 3.30131e-11 8.61355e-12 8.61355e-12 0 5.8849e-28 0 1.98919e-10 0 0 
1554.76 8.19345e-14 0 0 0 0 0 3.26591e-11 8.52118e-12 8.52118e-12 0 5.82179e-28 0 1.98919e-10 0 0 
1554.82 8.14904e-14 0 0 0 0 0 3.24821e-11 8.475e-12 8.475e-12 0 5.79024e-28 0 1.98919e-10 0 0 
1554.87 8.12683e-14 0 0 0 0 0 3.23936e-11 8.45191e-12 8.45191e-12 0 5.77446e-28 0 1.98919e-10 0 0 
1554.93 8.06022e-14 0 0 0 0 0 3.2128e-11 8.38263e-12 8.38263e-12 0 5.72713e-28 0 1.98919e-10 0 0 
1554.98 8.06022e-14 0 0 0 0 0 3.2128e-11 8.38263e-12 8.38263e-12 0 5.72713e-28 0 1.98919e-10 0 0 
1555.04 8.12683e-14 0 0 0 0 0 3.23936e-11 8.45191e-12 8.45191e-12 0 5.77446e-28 0 1.98919e-10 0 0 
1555.09 8.19345e-14 0 0 0 0 0 3.26591e-11 8.52118e-12 8.52118e-12 0 5.82179e-28 0 1.98919e-10 0 0 
1555.15 8.14904e-14 0 0 0 0 0 3.24821e-11 8.475e-12 8.475e-12 0 5.79024e-28 0 1.98919e-10 0 0 
1555.2 8.01581e-14 0 0 0 0 0 3.1951e-11 8.33644e-12 8.33644e-12 0 5.69558e-28 0 1.98919e-10 0 0 
1555.26 8.03801e-14 0 0 0 0 0 3.20395e-11 8.35954e-12 8.35954e-12 0 5.71135e-28 0 1.98919e-10 0 0 
1555.31 8.14904e-14 0 0 0 0 0 3.24821e-11 8.475e-12 8.475e-12 0 5.79024e-28 0 1.98919e-10 0 0 
1555.37 8.06022e-14 0 0 0 0 0 3.2128e-11 8.38263e-12 8.38263e-12 0 5.72713e-28 0 1.98919e-10 0 0 
1555.42 7.99361e-14 0 0 0 0 0 3.18625e-11 8.31335e-12 8.31335e-12 0 5.6798e-28 0 1.98919e-10 0 0 
1555.48 7.99361e-14 0 0 0 0 0 3.18625e-11 8.31335e-12 8.31335e-12 0 5.6798e-28 0 1.98919e-10 0 0 
1555.53 7.9492e-14 0 0 0 0 0 3.16855e-11 8.26716e-12 8.26716e-12 0 5.64824e-28 0 1.98919e-10 0 0 
1555.59 7.90479e-14 0 0 0 0 0 3.15085e-11 8.22098e-12 8.22098e-12 0 5.61669e-28 0 1.98919e-10 0 0 
1555.64 7.88258e-14 0 0 0 0 0 3.142e-11 8.19789e-12 8.19789e-12 0 5.60091e-28 0 1.98919e-10 0 0 
1555.7 7.9714e-14 0 0 0 0 0 3.1774e-11 8.29026e-12 8.29026e-12 0 5.66402e-28 0 1.98919e-10 0 0 
1555.75 7.99361e-14 0 0 0 0 0 3.18625e-11 8.31335e-12 8.31335e-12 0 5.6798e-28 0 1.98919e-10 0 0 
1555.81 7.9492e-14 0 0 0 0 0 3.16855e-11 8.26716e-12 8.26716e-12 0 5.64824e-28 0 1.98919e-10 0 0 
1555.86 7.92699e-14 0 0 0 0 0 3.1597e-11 8.24407e-12 8.24407e-12 0 5.63247e-28 0 1.98919e-10 0 0 
1555.92 7.90479e-14 0 0 0 0 0 3.15085e-11 8.22098e-12 8.22098e-12 0 5.61669e-28 0 1.98919e-10 0 0 
1555.97 7.92699e-14 0 0 0 0 0 3.1597e-11 8.24407e-12 8.24407e-12 0 5.63247e-28 0 1.98919e-10 0 0 
1556.03 7.9714e-14 0 0 0 0 0 3.1774e-11 8.29026e-12 8.29026e-12 0 5.66402e-28 0 1.98919e-10 0 0 
1556.08 7.9492e-14 0 0 0 0 0 3.16855e-11 8.26716e-12 8.26716e-12 0 5.64824e-28 0 1.98919e-10 0 0 
1556.14 7.92699e-14 0 0 0 0 0 3.1597e-11 8.24407e-12 8.24407e-12 0 5.63247e-28 0 1.98919e-10 0 0 
1556.19 8.01581e-14 0 0 0 0 0 3.1951e-11 8.33644e-12 8.33644e-12 0 5.69558e-28 0 1.98919e-10 0 0 
1556.25 7.99361e-14 0 0 0 0 0 3.18625e-11 8.31335e-12 8.31335e-12 0 5.6798e-28 0 1.98919e-10 0 0 
1556.3 7.92699e-14 0 0 0 0 0 3.1597e-11 8.24407e-12 8.24407e-12 0 5.63247e-28 0 1.98919e-10 0 0 
1556.36 7.9714e-14 0 0 0 0 0 3.1774e-11 8.29026e-12 8.29026e-12 0 5.66402e-28 0 1.98919e-10 0 0 
1556.41 7.9492e-14 0 0 0 0 0 3.16855e-11 8.26716e-12 8.26716e-12 0 5.64824e-28 0 1.98919e-10 0 0 
1556.47 7.90479e-14 0 0 0 0 0 3.15085e-11 8.22098e-12 8.22098e-12 0 5.61669e-28 0 1.98919e-10 0 0 
1556.52 7.90479e-14 0 0 0 0 0 3.15085e-11 8.22098e-12 8.22098e-12 0 5.61669e-28 0 1.98919e-10 0 0 
1556.58 7.92699e-14 0 0 0 0 0 3.1597e-11 8.24407e-12 8.24407e-12 0 5.63247e-28 0 1.98919e-10 0 0 
1556.63 7.90479e-14 0 0 0 0 0 3.15085e-11 8.22098e-12 8.22098e-12 0 5.61669e-28 0 1.98919e-10 0 0 
1556.69 7.81597e-14 0 0 0 0 0 3.11545e-11 8.12861e-12 8.12861e-12 0 5.55358e-28 0 1.98919e-10 0 0 
1556.74 7.79377e-14 0 0 0 0 0 3.10659e-11 8.10552e-12 8.10552e-12 0 5.5378e-28 0 1.98919e-10 0 0 
1556.8 7.86038e-14 0 0 0 0 0 3.13315e-11 8.17479e-12 8.17479e-12 0 5.58514e-28 0 1.98919e-10 0 0 
1556.85 7.79377e-14 0 0 0 0 0 3.10659e-11 8.10552e-12 8.10552e-12 0 5.5378e-28 0 1.98919e-10 0 0 
1556.91 7.63833e-14 0 0 0 0 0 3.04464e-11 7.94387e-12 7.94387e-12 0 5.42736e-28 0 1.98919e-10 0 0 
1556.96 7.68274e-14 0 0 0 0 0 3.06234e-11 7.99005e-12 7.99005e-12 0 5.45892e-28 0 1.98919e-10 0 0 
1557.02 7.70495e-14 0 0 0 0 0 3.07119e-11 8.01315e-12 8.01315e-12 0 5.47469e-28 0 1.98919e-10 0 0 
1557.07 7.66054e-14 0 0 0 0 0 3.05349e-11 7.96696e-12 7.96696e-12 0 5.44314e-28 0 1.98919e-10 0 0 
1557.13 7.70495e-14 0 0 0 0 0 3.07119e-11 8.01315e-12 8.01315e-12 0 5.47469e-28 0 1.98919e-10 0 0 
1557.18 7.72715e-14 0 0 0 0 0 3.08004e-11 8.03624e-12 8.03624e-12 0 5.49047e-28 0 1.98919e-10 0 0 
1557.24 7.70495e-14 0 0 0 0 0 3.07119e-11 8.01315e-12 8.01315e-12 0 5.47469e-28 0 1.98919e-10 0 0 
1557.29 7.66054e-14 0 0 0 0 0 3.05349e-11 7.96696e-12 7.96696e-12 0 5.44314e-28 0 1.98919e-10 0 0 
1557.35 7.59393e-14 0 0 0 0 0 3.02694e-11 7.89768e-12 7.89768e-12 0 5.39581e-28 0 1.98919e-10 0 0 
1557.4 7.52731e-14 0 0 0 0 0 3.00039e-11 7.8284e-12 7.8284e-12 0 5.34848e-28 0 1.98919e-10 0 0 
1557.46 7.50511e-14 0 0 0 0 0 2.99154e-11 7.80531e-12 7.80531e-12 0 5.3327e-28 0 1.98919e-10 0 0 
1557.51 7.4607e-14 0 0 0 0 0 2.97383e-11 7.75913e-12 7.75913e-12 0 5.30115e-28 0 1.98919e-10 0 0 
1557.57 7.41629e-14 0 0 0 0 0 2.95613e-11 7.71294e-12 7.71294e-12 0 5.26959e-28 0 1.98919e-10 0 0 
1557.62 7.43849e-14 0 0 0 0 0 2.96498e-11 7.73603e-12 7.73603e-12 0 5.28537e-28 0 1.98919e-10 0 0 
1557.68 7.41629e-14 0 0 0 0 0 2.95613e-11 7.71294e-12 7.71294e-12 0 5.26959e-28 0 1.98919e-10 0 0 
1557.73 7.37188e-14 0 0 0 0 0 2.93843e-11 7.66676e-12 7.66676e-12 0 5.23804e-28 0 1.98919e-10 0 0 
1557.79 7.34968e-14 0 0 0 0 0 2.92958e-11 7.64366e-12 7.64366e-12 0 5.22226e-28 0 1.98919e-10 0 0 
1557.84 7.30527e-14 0 0 0 0 0 2.91188e-11 7.59748e-12 7.59748e-12 0 5.1907e-28 0 1.98919e-10 0 0 
1557.9 7.26086e-14 0 0 0 0 0 2.89418e-11 7.55129e-12 7.55129e-12 0 5.15915e-28 0 1.98919e-10 0 0 
1557.95 7.26086e-14 0 0 0 0 0 2.89418e-11 7.55129e-12 7.55129e-12 0 5.15915e-28 0 1.98919e-10 0 0 
1558.01 7.21645e-14 0 0 0 0 0 2.87648e-11 7.50511e-12 7.50511e-12 0 5.1276e-28 0 1.98919e-10 0 0 
1558.06 7.17204e-14 0 0 0 0 0 2.85878e-11 7.45892e-12 7.45892e-12 0 5.09604e-28 0 1.98919e-10 0 0 
1558.12 7.19425e-14 0 0 0 0 0 2.86763e-11 7.48202e-12 7.48202e-12 0 5.11182e-28 0 1.98919e-10 0 0 
1558.17 7.19425e-14 0 0 0 0 0 2.86763e-11 7.48202e-12 7.48202e-12 0 5.11182e-28 0 1.98919e-10 0 0 
1558.23 7.17204e-14 0 0 0 0 0 2.85878e-11 7.45892e-12 7.45892e-12 0 5.09604e-28 0 1.98919e-10 0 0 
1558.28 7.12763e-14 0 0 0 0 0 2.84107e-11 7.41274e-12 7.41274e-12 0 5.06449e-28 0 1.98919e-10 0 0 
1558.34 7.08322e-14 0 0 0 0 0 2.82337e-11 7.36655e-12 7.36655e-12 0 5.03293e-28 0 1.98919e-10 0 0 
1558.39 7.03881e-14 0 0 0 0 0 2.80567e-11 7.32037e-12 7.32037e-12 0 5.00138e-28 0 1.98919e-10 0 0 
1558.45 6.99441e-14 0 0 0 0 0 2.78797e-11 7.27418e-12 7.27418e-12 0 4.96982e-28 0 1.98919e-10 0 0 
1558.5 6.86118e-14 0 0 0 0 0 2.73487e-11 7.13563e-12 7.13563e-12 0 4.87516e-28 0 1.98919e-10 0 0 
1558.56 6.75016e-14 0 0 0 0 0 2.69061e-11 7.02016e-12 7.02016e-12 0 4.79627e-28 0 1.98919e-10 0 0 
1558.61 6.72795e-14 0 0 0 0 0 2.68176e-11 6.99707e-12 6.99707e-12 0 4.7805e-28 0 1.98919e-10 0 0 
1558.67 6.72795e-14 0 0 0 0 0 2.68176e-11 6.99707e-12 6.99707e-12 0 4.7805e-28 0 1.98919e-10 0 0 
1558.72 6.70575e-14 0 0 0 0 0 2.67291e-11 6.97398e-12 6.97398e-12 0 4.76472e-28 0 1.98919e-10 0 0 
1558.78 6.72795e-14 0 0 0 0 0 2.68176e-11 6.99707e-12 6.99707e-12 0 4.7805e-28 0 1.98919e-10 0 0 
1558.83 6.70575e-14 0 0 0 0 0 2.67291e-11 6.97398e-12 6.97398e-12 0 4.76472e-28 0 1.98919e-10 0 0 
1558.89 6.63913e-14 0 0 0 0 0 2.64636e-11 6.9047e-12 6.9047e-12 0 4.71739e-28 0 1.98919e-10 0 0 
1558.94 6.63913e-14 0 0 0 0 0 2.64636e-11 6.9047e-12 6.9047e-12 0 4.71739e-28 0 1.98919e-10 0 0 
1559 6.61693e-14 0 0 0 0 0 2.63751e-11 6.88161e-12 6.88161e-12 0 4.70161e-28 0 1.98919e-10 0 0 
1559 6.52811e-14 0 0 0 0 0 2.60211e-11 6.78924e-12 6.78924e-12 0 4.6385e-28 0 1.98919e-10 0 0 
1559.06 6.57252e-14 0 0 0 0 0 2.61981e-11 6.83542e-12 6.83542e-12 0 4.67006e-28 0 1.98919e-10 0 0 
1559.11 6.59472e-14 0 0 0 0 0 2.62866e-11 6.85851e-12 6.85851e-12 0 4.68583e-28 0 1.98919e-10 0 0 
1559.17 6.59472e-14 0 0 0 0 0 2.62866e-11 6.85851e-12 6.85851e-12 0 4.68583e-28 0 1.98919e-10 0 0 
1559.22 6.63913e-14 0 0 0 0 0 2.64636e-11 6.9047e-12 6.9047e-12 0 4.71739e-28 0 1.98919e-10 0 0 
1559.28 6.61693e-14 0 0 0 0 0 2.63751e-11 6.88161e-12 6.88161e-12 0 4.70161e-28 0 1.98919e-10 0 0 
1559.33 6.52811e-14 0 0 0 0 0 2.60211e-11 6.78924e-12 6.78924e-12 0 4.6385e-28 0 1.98919e-10 0 0 
1559.39 6.50591e-14 0 0 0 0 0 2.59325e-11 6.76614e-12 6.76614e-12 0 4.62272e-28 0 1.98919e-10 0 0 
1559.44 6.4615e-14 0 0 0 0 0 2.57555e-11 6.71996e-12 6.71996e-12 0 4.59117e-28 0 1.98919e-10 0 0 
1559.5 6.39488e-14 0 0 0 0 0 2.549e-11 6.65068e-12 6.65068e-12 0 4.54384e-28 0 1.98919e-10 0 0 
1559.55 6.28386e-14 0 0 0 0 0 2.50475e-11 6.53522e-12 6.53522e-12 0 4.46495e-28 0 1.98919e-10 0 0 
1559.61 6.19504e-14 0 0 0 0 0 2.46934e-11 6.44285e-12 6.44285e-12 0 4.40184e-28 0 1.98919e-10 0 0 
1559.66 6.21725e-14 0 0 0 0 0 2.4782e-11 6.46594e-12 6.46594e-12 0 4.41762e-28 0 1.98919e-10 0 0 
1559.72 6.19504e-14 0 0 0 0 0 2.46934e-11 6.44285e-12 6.44285e-12 0 4.40184e-28 0 1.98919e-10 0 0 
1559.77 6.17284e-14 0 0 0 0 0 2.46049e-11 6.41975e-12 6.41975e-12 0 4.38607e-28 0 1.98919e-10 0 0 
1559.83 6.15064e-14 0 0 0 0 0 2.45164e-11 6.39666e-12 6.39666e-12 0 4.37029e-28 0 1.98919e-10 0 0 
1559.88 6.12843e-14 0 0 0 0 0 2.44279e-11 6.37357e-12 6.37357e-12 0 4.35451e-28 0 1.98919e-10 0 0 
1559.94 6.08402e-14 0 0 0 0 0 2.42509e-11 6.32738e-12 6.32738e-12 0 4.32296e-28 0 1.98919e-10 0 0 
1559.99 5.973e-14 0 0 0 0 0 2.38084e-11 6.21192e-12 6.21192e-12 0 4.24407e-28 0 1.98919e-10 0 0 
1560.05 5.90639e-14 0 0 0 0 0 2.35429e-11 6.14264e-12 6.14264e-12 0 4.19674e-28 0 1.98919e-10 0 0 
1560.1 5.90639e-14 0 0 0 0 0 2.35429e-11 6.14264e-12 6.14264e-12 0 4.19674e-28 0 1.98919e-10 0 0 
1560.16 5.86198e-14 0 0 0 0 0 2.33658e-11 6.09646e-12 6.09646e-12 0 4.16519e-28 0 1.98919e-10 0 0 
1560.21 5.83977e-14 0 0 0 0 0 2.32773e-11 6.07336e-12 6.07336e-12 0 4.14941e-28 0 1.98919e-10 0 0 
1560.27 5.81757e-14 0 0 0 0 0 2.31888e-11 6.05027e-12 6.05027e-12 0 4.13363e-28 0 1.98919e-10 0 0 
1560.32 5.75096e-14 0 0 0 0 0 2.29233e-11 5.98099e-12 5.98099e-12 0 4.0863e-28 0 1.98919e-10 0 0 
1560.38 5.77316e-14 0 0 0 0 0 2.30118e-11 6.00409e-12 6.00409e-12 0 4.10208e-28 0 1.98919e-10 0 0 
1560.43 5.77316e-14 0 0 0 0 0 2.30118e-11 6.00409e-12 6.00409e-12 0 4.10208e-28 0 1.98919e-10 0 0 
1560.49 5.68434e-14 0 0 0 0 0 2.26578e-11 5.91172e-12 5.91172e-12 0 4.03897e-28 0 1.98919e-10 0 0 
1560.54 5.68434e-14 0 0 0 0 0 2.26578e-11 5.91172e-12 5.91172e-12 0 4.03897e-28 0 1.98919e-10 0 0 
1560.6 5.66214e-14 0 0 0 0 0 2.25693e-11 5.88862e-12 5.88862e-12 0 4.02319e-28 0 1.98919e-10 0 0 
1560.65 5.59552e-14 0 0 0 0 0 2.23038e-11 5.81935e-12 5.81935e-12 0 3.97586e-28 0 1.98919e-10 0 0 
1560.71 5.59552e-14 0 0 0 0 0 2.23038e-11 5.81935e-12 5.81935e-12 0 3.97586e-28 0 1.98919e-10 0 0 
1560.76 5.59552e-14 0 0 0 0 0 2.23038e-11 5.81935e-12 5.81935e-12 0 3.97586e-28 0 1.98919e-10 0 0 
1560.82 5.57332e-14 0 0 0 0 0 2.22153e-11 5.79625e-12 5.79625e-12 0 3.96008e-28 0 1.98919e-10 0 0 
1560.87 5.4845e-14 0 0 0 0 0 2.18612e-11 5.70388e-12 5.70388e-12 0 3.89697e-28 0 1.98919e-10 0 0 
1560.93 5.41789e-14 0 0 0 0 0 2.15957e-11 5.6346e-12 5.6346e-12 0 3.84964e-28 0 1.98919e-10 0 0 
1560.98 5.37348e-14 0 0 0 0 0 2.14187e-11 5.58842e-12 5.58842e-12 0 3.81809e-28 0 1.98919e-10 0 0 
1561.04 5.35127e-14 0 0 0 0 0 2.13302e-11 5.56533e-12 5.56533e-12 0 3.80231e-28 0 1.98919e-10 0 0 
1561.09 5.35127e-14 0 0 0 0 0 2.13302e-11 5.56533e-12 5.56533e-12 0 3.80231e-28 0 1.98919e-10 0 0 
1561.15 5.35127e-14 0 0 0 0 0 2.13302e-11 5.56533e-12 5.56533e-12 0 3.80231e-28 0 1.98919e-10 0 0 
1561.2 5.35127e-14 0 0 0 0 0 2.13302e-11 5.56533e-12 5.56533e-12 0 3.80231e-28 0 1.98919e-10 0 0 
1561.26 5.30687e-14 0 0 0 0 0 2.11532e-11 5.51914e-12 5.51914e-12 0 3.77076e-28 0 1.98919e-10 0 0 
1561.31 5.28466e-14 0 0 0 0 0 2.10647e-11 5.49605e-12 5.49605e-12 0 3.75498e-28 0 1.98919e-10 0 0 
1561.37 5.28466e-14 0 0 0 0 0 2.10647e-11 5.49605e-12 5.49605e-12 0 3.75498e-28 0 1.98919e-10 0 0 
1561.42 5.30687e-14 0 0 0 0 0 2.11532e-11 5.51914e-12 5.51914e-12 0 3.77076e-28 0 1.98919e-10 0 0 
1561.48 5.24025e-14 0 0 0 0 0 2.08876e-11 5.44986e-12 5.44986e-12 0 3.72342e-28 0 1.98919e-10 0 0 
1561.53 5.10703e-14 0 0 0 0 0 2.03566e-11 5.31131e-12 5.31131e-12 0 3.62876e-28 0 1.98919e-10 0 0 
1561.59 5.04041e-14 0 0 0 0 0 2.00911e-11 5.24203e-12 5.24203e-12 0 3.58143e-28 0 1.98919e-10 0 0 
1561.64 5.04041e-14 0 0 0 0 0 2.00911e-11 5.24203e-12 5.24203e-12 0 3.58143e-28 0 1.98919e-10 0 0 
1561.7 5.08482e-14 0 0 0 0 0 2.02681e-11 5.28821e-12 5.28821e-12 0 3.61298e-28 0 1.98919e-10 0 0 
1561.75 5.10703e-14 0 0 0 0 0 2.03566e-11 5.31131e-12 5.31131e-12 0 3.62876e-28 0 1.98919e-10 0 0 
1561.81 5.15143e-14 0 0 0 0 0 2.05336e-11 5.35749e-12 5.35749e-12 0 3.66031e-28 0 1.98919e-10 0 0 
1561.86 5.15143e-14 0 0 0 0 0 2.05336e-11 5.35749e-12 5.35749e-12 0 3.66031e-28 0 1.98919e-10 0 0 
1561.92 5.15143e-14 0 0 0 0 0 2.05336e-11 5.35749e-12 5.35749e-12 0 3.66031e-28 0 1.98919e-10 0 0 
1561.97 5.28466e-14 0 0 0 0 0 2.10647e-11 5.49605e-12 5.49605e-12 0 3.75498e-28 0 1.98919e-10 0 0 
1562.03 5.35127e-14 0 0 0 0 0 2.13302e-11 5.56533e-12 5.56533e-12 0 3.80231e-28 0 1.98919e-10 0 0 
1562.08 5.32907e-14 0 0 0 0 0 2.12417e-11 5.54223e-12 5.54223e-12 0 3.78653e-28 0 1.98919e-10 0 0 
1562.14 5.28466e-14 0 0 0 0 0 2.10647e-11 5.49605e-12 5.49605e-12 0 3.75498e-28 0 1.98919e-10 0 0 
1562.19 5.28466e-14 0 0 0 0 0 2.10647e-11 5.49605e-12 5.49605e-12 0 3.75498e-28 0 1.98919e-10 0 0 
1562.25 5.37348e-14 0 0 0 0 0 2.14187e-11 5.58842e-12 5.58842e-12 0 3.81809e-28 0 1.98919e-10 0 0 
1562.3 5.41789e-14 0 0 0 0 0 2.15957e-11 5.6346e-12 5.6346e-12 0 3.84964e-28 0 1.98919e-10 0 0 
1562.36 5.39568e-14 0 0 0 0 0 2.15072e-11 5.61151e-12 5.61151e-12 0 3.83386e-28 0 1.98919e-10 0 0 
1562.41 5.28466e-14 0 0 0 0 0 2.10647e-11 5.49605e-12 5.49605e-12 0 3.75498e-28 0 1.98919e-10 0 0 
1562.47 5.19584e-14 0 0 0 0 0 2.07106e-11 5.40368e-12 5.40368e-12 0 3.69187e-28 0 1.98919e-10 0 0 
1562.52 5.12923e-14 0 0 0 0 0 2.04451e-11 5.3344e-12 5.3344e-12 0 3.64454e-28 0 1.98919e-10 0 0 
1562.58 5.12923e-14 0 0 0 0 0 2.04451e-11 5.3344e-12 5.3344e-12 0 3.64454e-28 0 1.98919e-10 0 0 
1562.63 5.12923e-14 0 0 0 0 0 2.04451e-11 5.3344e-12 5.3344e-12 0 3.64454e-28 0 1.98919e-10 0 0 
1562.69 5.10703e-14 0 0 0 0 0 2.03566e-11 5.31131e-12 5.31131e-12 0 3.62876e-28 0 1.98919e-10 0 0 
1562.74 5.04041e-14 0 0 0 0 0 2.00911e-11 5.24203e-12 5.24203e-12 0 3.58143e-28 0 1.98919e-10 0 0 
1562.8 5.01821e-14 0 0 0 0 0 2.00026e-11 5.21894e-12 5.21894e-12 0 3.56565e-28 0 1.98919e-10 0 0 
1562.85 5.01821e-14 0 0 0 0 0 2.00026e-11 5.21894e-12 5.21894e-12 0 3.56565e-28 0 1.98919e-10 0 0 
1562.91 4.90719e-14 0 0 0 0 0 1.956e-11 5.10347e-12 5.10347e-12 0 3.48677e-28 0 1.98919e-10 0 0 
1562.96 4.92939e-14 0 0 0 0 0 1.96485e-11 5.12657e-12 5.12657e-12 0 3.50254e-28 0 1.98919e-10 0 0 
1563.02 4.9738e-14 0 0 0 0 0 1.98256e-11 5.17275e-12 5.17275e-12 0 3.5341e-28 0 1.98919e-10 0 0 
1563.07 5.01821e-14 0 0 0 0 0 2.00026e-11 5.21894e-12 5.21894e-12 0 3.56565e-28 0 1.98919e-10 0 0 
1563.13 5.01821e-14 0 0 0 0 0 2.00026e-11 5.21894e-12 5.21894e-12 0 3.56565e-28 0 1.98919e-10 0 0 
1563.18 4.92939e-14 0 0 0 0 0 1.96485e-11 5.12657e-12 5.12657e-12 0 3.50254e-28 0 1.98919e-10 0 0 
1563.24 4.88498e-14 0 0 0 0 0 1.94715e-11 5.08038e-12 5.08038e-12 0 3.47099e-28 0 1.98919e-10 0 0 
1563.29 4.90719e-14 0 0 0 0 0 1.956e-11 5.10347e-12 5.10347e-12 0 3.48677e-28 0 1.98919e-10 0 0 
1563.35 4.92939e-14 0 0 0 0 0 1.96485e-11 5.12657e-12 5.12657e-12 0 3.50254e-28 0 1.98919e-10 0 0 
1563.4 4.88498e-14 0 0 0 0 0 1.94715e-11 5.08038e-12 5.08038e-12 0 3.47099e-28 0 1.98919e-10 0 0 
1563.46 4.75175e-14 0 0 0 0 0 1.89405e-11 4.94182e-12 4.94182e-12 0 3.37632e-28 0 1.98919e-10 0 0 
1563.51 4.66294e-14 0 0 0 0 0 1.85865e-11 4.84945e-12 4.84945e-12 0 3.31322e-28 0 1.98919e-10 0 0 
1563.57 4.64073e-14 0 0 0 0 0 1.8498e-11 4.82636e-12 4.82636e-12 0 3.29744e-28 0 1.98919e-10 0 0 
1563.62 4.64073e-14 0 0 0 0 0 1.8498e-11 4.82636e-12 4.82636e-12 0 3.29744e-28 0 1.98919e-10 0 0 
1563.68 4.61853e-14 0 0 0 0 0 1.84095e-11 4.80327e-12 4.80327e-12 0 3.28166e-28 0 1.98919e-10 0 0 
1563.73 4.55191e-14 0 0 0 0 0 1.81439e-11 4.73399e-12 4.73399e-12 0 3.23433e-28 0 1.98919e-10 0 0 
1563.79 4.50751e-14 0 0 0 0 0 1.79669e-11 4.68781e-12 4.68781e-12 0 3.20278e-28 0 1.98919e-10 0 0 
1563.84 4.4853e-14 0 0 0 0 0 1.78784e-11 4.66471e-12 4.66471e-12 0 3.187e-28 0 1.98919e-10 0 0 
1563.9 4.41869e-14 0 0 0 0 0 1.76129e-11 4.59544e-12 4.59544e-12 0 3.13967e-28 0 1.98919e-10 0 0 
1563.95 4.32987e-14 0 0 0 0 0 1.72589e-11 4.50306e-12 4.50306e-12 0 3.07656e-28 0 1.98919e-10 0 0 
1564.01 4.26326e-14 0 0 0 0 0 1.69933e-11 4.43379e-12 4.43379e-12 0 3.02923e-28 0 1.98919e-10 0 0 
1564.06 4.15223e-14 0 0 0 0 0 1.65508e-11 4.31832e-12 4.31832e-12 0 2.95034e-28 0 1.98919e-10 0 0 
1564.12 3.9968e-14 0 0 0 0 0 1.59313e-11 4.15668e-12 4.15668e-12 0 2.8399e-28 0 1.98919e-10 0 0 
1564.17 3.93019e-14 0 0 0 0 0 1.56657e-11 4.0874e-12 4.0874e-12 0 2.79257e-28 0 1.98919e-10 0 0 
1564.23 3.90799e-14 0 0 0 0 0 1.55772e-11 4.0643e-12 4.0643e-12 0 2.77679e-28 0 1.98919e-10 0 0 
1564.28 3.90799e-14 0 0 0 0 0 1.55772e-11 4.0643e-12 4.0643e-12 0 2.77679e-28 0 1.98919e-10 0 0 
1564.34 3.90799e-14 0 0 0 0 0 1.55772e-11 4.0643e-12 4.0643e-12 0 2.77679e-28 0 1.98919e-10 0 0 
1564.39 3.86358e-14 0 0 0 0 0 1.54002e-11 4.01812e-12 4.01812e-12 0 2.74524e-28 0 1.98919e-10 0 0 
1564.45 3.86358e-14 0 0 0 0 0 1.54002e-11 4.01812e-12 4.01812e-12 0 2.74524e-28 0 1.98919e-10 0 0 
1564.5 3.81917e-14 0 0 0 0 0 1.52232e-11 3.97193e-12 3.97193e-12 0 2.71368e-28 0 1.98919e-10 0 0 
1564.56 3.73035e-14 0 0 0 0 0 1.48692e-11 3.87956e-12 3.87956e-12 0 2.65057e-28 0 1.98919e-10 0 0 
1564.61 3.70814e-14 0 0 0 0 0 1.47807e-11 3.85647e-12 3.85647e-12 0 2.6348e-28 0 1.98919e-10 0 0 
1564.67 3.70814e-14 0 0 0 0 0 1.47807e-11 3.85647e-12 3.85647e-12 0 2.6348e-28 0 1.98919e-10 0 0 
1564.72 3.61933e-14 0 0 0 0 0 1.44266e-11 3.7641e-12 3.7641e-12 0 2.57169e-28 0 1.98919e-10 0 0 
1564.78 3.55271e-14 0 0 0 0 0 1.41611e-11 3.69482e-12 3.69482e-12 0 2.52435e-28 0 1.98919e-10 0 0 
1564.83 3.5083e-14 0 0 0 0 0 1.39841e-11 3.64864e-12 3.64864e-12 0 2.4928e-28 0 1.98919e-10 0 0 
1564.89 3.5083e-14 0 0 0 0 0 1.39841e-11 3.64864e-12 3.64864e-12 0 2.4928e-28 0 1.98919e-10 0 0 
1564.94 3.5083e-14 0 0 0 0 0 1.39841e-11 3.64864e-12 3.64864e-12 0 2.4928e-28 0 1.98919e-10 0 0 
1565 3.4639e-14 0 0 0 0 0 1.38071e-11 3.60245e-12 3.60245e-12 0 2.46125e-28 0 1.98919e-10 0 0 
1565 0.00245628 -0.0048291 -0.0048291 0 -2.68882e-17 0 1.41176e-11 -2.17121 -2.17121 0 -5.63848e-15 0 1.98919e-10 0 0 
1565.06 0.00245628 -0.0048291 -0.0048291 0 -2.68882e-17 0 1.38478e-11 -2.17121 -2.17121 0 -5.63848e-15 0 1.9949e-10 0 0 
1565.11 0.00245628 -0.0048291 -0.0048291 0 -2.68882e-17 0 1.39377e-11 -2.17121 -2.17121 0 -5.63848e-15 0 2.00061e-10 0 0 
1565.17 0.00245628 -0.0048291 -0.0048291 0 -2.68882e-17 0 1.40277e-11 -2.17121 -2.17121 0 -5.63848e-15 0 2.00633e-10 0 0 
1565.22 0.00245628 -0.0048291 -0.0048291 0 -2.68882e-17 0 1.3668e-11 -2.17121 -2.17121 0 -5.63848e-15 0 2.01204e-10 0 0 
1565.28 0.00245628 -0.0048291 -0.0048291 0 -2.68882e-17 0 1.3668e-11 -2.17121 -2.17121 0 -5.63848e-15 0 2.01776e-10 0 0 
1565.33 0.00245628 -0.0048291 -0.0048291 0 -2.68882e-17 0 1.38478e-11 -2.17121 -2.17121 0 -5.63848e-15 0 2.02347e-10 0 0 
1565.39 0.00245628 -0.0048291 -0.0048291 0 -2.68882e-17 0 1.39377e-11 -2.17121 -2.17121 0 -5.63848e-15 0 2.02919e-10 0 0 
1565.44 0.00245628 -0.0048291 -0.0048291 0 -2.68882e-17 0 1.40277e-11 -2.17121 -2.17121 0 -5.63848e-15 0 2.0349e-10 0 0 
1565.5 0.00245628 -0.0048291 -0.0048291 0 -2.68882e-17 0 1.39377e-11 -2.17121 -2.17121 0 -5.63848e-15 0 2.04062e-10 0 0 
1565.56 0.00245628 -0.0048291 -0.0048291 0 -2.68882e-17 0 1.34881e-11 -2.17121 -2.17121 0 -5.63848e-15 0 2.04633e-10 0 0 
1565.61 0.00245628 -0.0048291 -0.0048291 0 -2.68882e-17 0 1.33982e-11 -2.17121 -2.17121 0 -5.63848e-15 0 2.05205e-10 0 0 
1565.67 0.00245628 -0.0048291 -0.0048291 0 -2.68882e-17 0 1.3578e-11 -2.17121 -2.17121 0 -5.63848e-15 0 2.05776e-10 0 0 
1565.72 0.00245628 -0.0048291 -0.0048291 0 -2.68882e-17 0 1.38478e-11 -2.17121 -2.17121 0 -5.63848e-15 0 2.06348e-10 0 0 
1565.78 0.00245628 -0.0048291 -0.0048291 0 -2.68882e-17 0 1.39377e-11 -2.17121 -2.17121 0 -5.63848e-15 0 2.06919e-10 0 0 
1565.83 0.00245628 -0.0048291 -0.0048291 0 -2.68882e-17 0 1.38478e-11 -2.17121 -2.17121 0 -5.63848e-15 0 2.07491e-10 0 0 
1565.89 0.00245628 -0.0048291 -0.0048291 0 -2.68882e-17 0 1.40277e-11 -2.17121 -2.17121 0 -5.63848e-15 0 2.08062e-10 0 0 
1565.94 0.00245628 -0.0048291 -0.0048291 0 -2.68882e-17 0 1.42075e-11 -2.17121 -2.17121 0 -5.63848e-15 0 2.08634e-10 0 0 
1566 0.00245628 -0.0048291 -0.0048291 0 -2.68882e-17 0 1.42975e-11 -2.17121 -2.17121 0 -5.63848e-15 0 2.09205e-10 0 0 
1566.06 0.00245628 -0.0048291 -0.0048291 0 -2.68882e-17 0 1.42075e-11 -2.17121 -2.17121 0 -5.63848e-15 0 2.09777e-10 0 0 
1566.11 0.00245628 -0.0048291 -0.0048291 0 -2.68882e-17 0 1.41176e-11 -2.17121 -2.17121 0 -5.63848e-15 0 2.10348e-10 0 0 
1566.17 0.00245628 -0.0048291 -0.0048291 0 -2.68882e-17 0 1.43874e-11 -2.17121 -2.17121 0 -5.63848e-15 0 2.1092e-10 0 0 
1566.22 0.00245628 -0.0048291 -0.0048291 0 -2.68882e-17 0 1.44773e-11 -2.17121 -2.17121 0 -5.63848e-15 0 2.11491e-10 0 0 
1566.28 0.00245628 -0.0048291 -0.0048291 0 -2.68882e-17 0 1.42975e-11 -2.17121 -2.17121 0 -5.63848e-15 0 2.12062e-10 0 0 
1566.33 0.00245628 -0.0048291 -0.0048291 0 -2.68882e-17 0 1.43874e-11 -2.17121 -2.17121 0 -5.63848e-15 0 2.12634e-10 0 0 
1566.39 0.00245628 -0.0048291 -0.0048291 0 -2.68882e-17 0 1.46572e-11 -2.17121 -2.17121 0 -5.63848e-15 0 2.13205e-10 0 0 
1566.44 0.00245628 -0.0048291 -0.0048291 0 -2.68882e-17 0 1.47471e-11 -2.17121 -2.17121 0 -5.63848e-15 0 2.13777e-10 0 0 
1566.5 0.00245628 -0.0048291 -0.0048291 0 -2.68882e-17 0 1.42975e-11 -2.17121 -2.17121 0 -5.63848e-15 0 2.14348e-10 0 0 
1566.56 0.00245628 -0.0048291 -0.0048291 0 -2.68882e-17 0 1.42075e-11 -2.17121 -2.17121 0 -5.63848e-15 0 2.1492e-10 0 0 
1566.61 0.00245628 -0.0048291 -0.0048291 0 -2.68882e-17 0 1.42975e-11 -2.17121 -2.17121 0 -5.63848e-15 0 2.15491e-10 0 0 
1566.67 0.00245628 -0.0048291 -0.0048291 0 -2.68882e-17 0 1.42075e-11 -2.17121 -2.17121 0 -5.63848e-15 0 2.16063e-10 0 0 
1566.72 0.00245628 -0.0048291 -0.0048291 0 -2.68882e-17 0 1.42075e-11 -2.17121 -2.17121 0 -5.63848e-15 0 2.16634e-10 0 0 
1566.78 0.00245628 -0.0048291 -0.0048291 0 -2.68882e-17 0 1.42975e-11 -2.17121 -2.17121 0 -5.63848e-15 0 2.17206e-10 0 0 
1566.83 0.00245628 -0.0048291 -0.0048291 0 -2.68882e-17 0 1.42075e-11 -2.17121 -2.17121 0 -5.63848e-15 0 2.17777e-10 0 0 
1566.89 0.00245628 -0.0048291 -0.0048291 0 -2.68882e-17 0 1.42075e-11 -2.17121 -2.17121 0 -5.63848e-15 0 2.18349e-10 0 0 
1566.94 0.00245628 -0.0048291 -0.0048291 0 -2.68882e-17 0 1.43874e-11 -2.17121 -2.17121 0 -5.63848e-15 0 2.1892e-10 0 0 
1567 0.00245628 -0.0048291 -0.0048291 0 -2.68882e-17 0 1.42975e-11 -2.17121 -2.17121 0 -5.63848e-15 0 2.19492e-10 0 0 
1567 3.55271e-14 0 0 0 0 0 1.41611e-11 3.69482e-12 3.69482e-12 0 2.52435e-28 0 2.19492e-10 0 0 
1567.06 3.53051e-14 0 0 0 0 0 1.40726e-11 3.67173e-12 3.67173e-12 0 2.50858e-28 0 2.19492e-10 0 0 
1567.11 3.53051e-14 0 0 0 0 0 1.40726e-11 3.67173e-12 3.67173e-12 0 2.50858e-28 0 2.19492e-10 0 0 
1567.17 3.44169e-14 0 0 0 0 0 1.37186e-11 3.57936e-12 3.57936e-12 0 2.44547e-28 0 2.19492e-10 0 0 
1567.22 3.35287e-14 0 0 0 0 0 1.33646e-11 3.48699e-12 3.48699e-12 0 2.38236e-28 0 2.19492e-10 0 0 
1567.28 3.37508e-14 0 0 0 0 0 1.34531e-11 3.51008e-12 3.51008e-12 0 2.39814e-28 0 2.19492e-10 0 0 
1567.33 3.35287e-14 0 0 0 0 0 1.33646e-11 3.48699e-12 3.48699e-12 0 2.38236e-28 0 2.19492e-10 0 0 
1567.39 3.28626e-14 0 0 0 0 0 1.3099e-11 3.41771e-12 3.41771e-12 0 2.33503e-28 0 2.19492e-10 0 0 
1567.44 3.19744e-14 0 0 0 0 0 1.2745e-11 3.32534e-12 3.32534e-12 0 2.27192e-28 0 2.19492e-10 0 0 
1567.5 3.19744e-14 0 0 0 0 0 1.2745e-11 3.32534e-12 3.32534e-12 0 2.27192e-28 0 2.19492e-10 0 0 
1567.55 3.17524e-14 0 0 0 0 0 1.26565e-11 3.30225e-12 3.30225e-12 0 2.25614e-28 0 2.19492e-10 0 0 
1567.61 3.06422e-14 0 0 0 0 0 1.2214e-11 3.18678e-12 3.18678e-12 0 2.17726e-28 0 2.19492e-10 0 0 
1567.66 3.01981e-14 0 0 0 0 0 1.20369e-11 3.1406e-12 3.1406e-12 0 2.1457e-28 0 2.19492e-10 0 0 
1567.72 3.01981e-14 0 0 0 0 0 1.20369e-11 3.1406e-12 3.1406e-12 0 2.1457e-28 0 2.19492e-10 0 0 
1567.77 3.01981e-14 0 0 0 0 0 1.20369e-11 3.1406e-12 3.1406e-12 0 2.1457e-28 0 2.19492e-10 0 0 
1567.83 3.01981e-14 0 0 0 0 0 1.20369e-11 3.1406e-12 3.1406e-12 0 2.1457e-28 0 2.19492e-10 0 0 
1567.88 2.95319e-14 0 0 0 0 0 1.17714e-11 3.07132e-12 3.07132e-12 0 2.09837e-28 0 2.19492e-10 0 0 
1567.94 2.81997e-14 0 0 0 0 0 1.12404e-11 2.93277e-12 2.93277e-12 0 2.00371e-28 0 2.19492e-10 0 0 
1567.99 2.75335e-14 0 0 0 0 0 1.09749e-11 2.86349e-12 2.86349e-12 0 1.95638e-28 0 2.19492e-10 0 0 
1568.05 2.77556e-14 0 0 0 0 0 1.10634e-11 2.88658e-12 2.88658e-12 0 1.97215e-28 0 2.19492e-10 0 0 
1568.1 2.73115e-14 0 0 0 0 0 1.08864e-11 2.84039e-12 2.84039e-12 0 1.9406e-28 0 2.19492e-10 0 0 
1568.16 2.68674e-14 0 0 0 0 0 1.07093e-11 2.79421e-12 2.79421e-12 0 1.90904e-28 0 2.19492e-10 0 0 
1568.21 2.70894e-14 0 0 0 0 0 1.07979e-11 2.8173e-12 2.8173e-12 0 1.92482e-28 0 2.19492e-10 0 0 
1568.27 2.66454e-14 0 0 0 0 0 1.06208e-11 2.77112e-12 2.77112e-12 0 1.89327e-28 0 2.19492e-10 0 0 
1568.32 2.59792e-14 0 0 0 0 0 1.03553e-11 2.70184e-12 2.70184e-12 0 1.84593e-28 0 2.19492e-10 0 0 
1568.38 2.57572e-14 0 0 0 0 0 1.02668e-11 2.67875e-12 2.67875e-12 0 1.83016e-28 0 2.19492e-10 0 0 
1568.43 2.59792e-14 0 0 0 0 0 1.03553e-11 2.70184e-12 2.70184e-12 0 1.84593e-28 0 2.19492e-10 0 0 
1568.49 2.59792e-14 0 0 0 0 0 1.03553e-11 2.70184e-12 2.70184e-12 0 1.84593e-28 0 2.19492e-10 0 0 
1568.54 2.4647e-14 0 0 0 0 0 9.82427e-12 2.56328e-12 2.56328e-12 0 1.75127e-28 0 2.19492e-10 0 0 
1568.6 2.33147e-14 0 0 0 0 0 9.29323e-12 2.42473e-12 2.42473e-12 0 1.65661e-28 0 2.19492e-10 0 0 
1568.65 2.26485e-14 0 0 0 0 0 9.02771e-12 2.35545e-12 2.35545e-12 0 1.60928e-28 0 2.19492e-10 0 0 
1568.71 2.24265e-14 0 0 0 0 0 8.9392e-12 2.33236e-12 2.33236e-12 0 1.5935e-28 0 2.19492e-10 0 0 
1568.76 2.22045e-14 0 0 0 0 0 8.8507e-12 2.30926e-12 2.30926e-12 0 1.57772e-28 0 2.19492e-10 0 0 
1568.82 2.15383e-14 0 0 0 0 0 8.58518e-12 2.23999e-12 2.23999e-12 0 1.53039e-28 0 2.19492e-10 0 0 
1568.87 2.10942e-14 0 0 0 0 0 8.40816e-12 2.1938e-12 2.1938e-12 0 1.49884e-28 0 2.19492e-10 0 0 
1568.93 2.08722e-14 0 0 0 0 0 8.31966e-12 2.17071e-12 2.17071e-12 0 1.48306e-28 0 2.19492e-10 0 0 
1568.98 2.04281e-14 0 0 0 0 0 8.14264e-12 2.12452e-12 2.12452e-12 0 1.4515e-28 0 2.19492e-10 0 0 
1569.04 2.06501e-14 0 0 0 0 0 8.23115e-12 2.14762e-12 2.14762e-12 0 1.46728e-28 0 2.19492e-10 0 0 
1569.09 2.13163e-14 0 0 0 0 0 8.49667e-12 2.21689e-12 2.21689e-12 0 1.51461e-28 0 2.19492e-10 0 0 
1569.15 2.02061e-14 0 0 0 0 0 8.05414e-12 2.10143e-12 2.10143e-12 0 1.43573e-28 0 2.19492e-10 0 0 
1569.2 1.90958e-14 0 0 0 0 0 7.6116e-12 1.98597e-12 1.98597e-12 0 1.35684e-28 0 2.19492e-10 0 0 
1569.26 1.86517e-14 0 0 0 0 0 7.43459e-12 1.93978e-12 1.93978e-12 0 1.32529e-28 0 2.19492e-10 0 0 
1569.31 1.86517e-14 0 0 0 0 0 7.43459e-12 1.93978e-12 1.93978e-12 0 1.32529e-28 0 2.19492e-10 0 0 
1569.37 1.86517e-14 0 0 0 0 0 7.43459e-12 1.93978e-12 1.93978e-12 0 1.32529e-28 0 2.19492e-10 0 0 
1569.42 1.84297e-14 0 0 0 0 0 7.34608e-12 1.91669e-12 1.91669e-12 0 1.30951e-28 0 2.19492e-10 0 0 
1569.48 1.86517e-14 0 0 0 0 0 7.43459e-12 1.93978e-12 1.93978e-12 0 1.32529e-28 0 2.19492e-10 0 0 
1569.53 1.84297e-14 0 0 0 0 0 7.34608e-12 1.91669e-12 1.91669e-12 0 1.30951e-28 0 2.19492e-10 0 0 
1569.59 1.79856e-14 0 0 0 0 0 7.16907e-12 1.8705e-12 1.8705e-12 0 1.27795e-28 0 2.19492e-10 0 0 
1569.64 1.77636e-14 0 0 0 0 0 7.08056e-12 1.84741e-12 1.84741e-12 0 1.26218e-28 0 2.19492e-10 0 0 
1569.7 1.75415e-14 0 0 0 0 0 6.99205e-12 1.82432e-12 1.82432e-12 0 1.2464e-28 0 2.19492e-10 0 0 
1569.75 1.73195e-14 0 0 0 0 0 6.90354e-12 1.80123e-12 1.80123e-12 0 1.23062e-28 0 2.19492e-10 0 0 
1569.81 1.79856e-14 0 0 0 0 0 7.16907e-12 1.8705e-12 1.8705e-12 0 1.27795e-28 0 2.19492e-10 0 0 
1569.86 1.84297e-14 0 0 0 0 0 7.34608e-12 1.91669e-12 1.91669e-12 0 1.30951e-28 0 2.19492e-10 0 0 
1569.92 1.75415e-14 0 0 0 0 0 6.99205e-12 1.82432e-12 1.82432e-12 0 1.2464e-28 0 2.19492e-10 0 0 
1569.97 1.77636e-14 0 0 0 0 0 7.08056e-12 1.84741e-12 1.84741e-12 0 1.26218e-28 0 2.19492e-10 0 0 
1570.03 1.84297e-14 0 0 0 0 0 7.34608e-12 1.91669e-12 1.91669e-12 0 1.30951e-28 0 2.19492e-10 0 0 
1570.08 1.82077e-14 0 0 0 0 0 7.25757e-12 1.8936e-12 1.8936e-12 0 1.29373e-28 0 2.19492e-10 0 0 
1570.14 1.86517e-14 0 0 0 0 0 7.43459e-12 1.93978e-12 1.93978e-12 0 1.32529e-28 0 2.19492e-10 0 0 
1570.19 1.88738e-14 0 0 0 0 0 7.52309e-12 1.96287e-12 1.96287e-12 0 1.34106e-28 0 2.19492e-10 0 0 
1570.25 1.84297e-14 0 0 0 0 0 7.34608e-12 1.91669e-12 1.91669e-12 0 1.30951e-28 0 2.19492e-10 0 0 
1570.3 1.88738e-14 0 0 0 0 0 7.52309e-12 1.96287e-12 1.96287e-12 0 1.34106e-28 0 2.19492e-10 0 0 
1570.36 1.9984e-14 0 0 0 0 0 7.96563e-12 2.07834e-12 2.07834e-12 0 1.41995e-28 0 2.19492e-10 0 0 
1570.41 1.9984e-14 0 0 0 0 0 7.96563e-12 2.07834e-12 2.07834e-12 0 1.41995e-28 0 2.19492e-10 0 0 
1570.47 1.93179e-14 0 0 0 0 0 7.70011e-12 2.00906e-12 2.00906e-12 0 1.37262e-28 0 2.19492e-10 0 0 
1570.52 1.88738e-14 0 0 0 0 0 7.52309e-12 1.96287e-12 1.96287e-12 0 1.34106e-28 0 2.19492e-10 0 0 
1570.58 1.86517e-14 0 0 0 0 0 7.43459e-12 1.93978e-12 1.93978e-12 0 1.32529e-28 0 2.19492e-10 0 0 
1570.63 1.84297e-14 0 0 0 0 0 7.34608e-12 1.91669e-12 1.91669e-12 0 1.30951e-28 0 2.19492e-10 0 0 
1570.69 1.77636e-14 0 0 0 0 0 7.08056e-12 1.84741e-12 1.84741e-12 0 1.26218e-28 0 2.19492e-10 0 0 
1570.74 1.75415e-14 0 0 0 0 0 6.99205e-12 1.82432e-12 1.82432e-12 0 1.2464e-28 0 2.19492e-10 0 0 
1570.8 1.73195e-14 0 0 0 0 0 6.90354e-12 1.80123e-12 1.80123e-12 0 1.23062e-28 0 2.19492e-10 0 0 
1570.85 1.66533e-14 0 0 0 0 0 6.63802e-12 1.73195e-12 1.73195e-12 0 1.18329e-28 0 2.19492e-10 0 0 
1570.91 1.57652e-14 0 0 0 0 0 6.284e-12 1.63958e-12 1.63958e-12 0 1.12018e-28 0 2.19492e-10 0 0 
1570.96 1.5099e-14 0 0 0 0 0 6.01847e-12 1.5703e-12 1.5703e-12 0 1.07285e-28 0 2.19492e-10 0 0 
1571.02 1.55431e-14 0 0 0 0 0 6.19549e-12 1.61648e-12 1.61648e-12 0 1.10441e-28 0 2.19492e-10 0 0 
1571.07 1.59872e-14 0 0 0 0 0 6.3725e-12 1.66267e-12 1.66267e-12 0 1.13596e-28 0 2.19492e-10 0 0 
1571.13 1.57652e-14 0 0 0 0 0 6.284e-12 1.63958e-12 1.63958e-12 0 1.12018e-28 0 2.19492e-10 0 0 
1571.18 1.53211e-14 0 0 0 0 0 6.10698e-12 1.59339e-12 1.59339e-12 0 1.08863e-28 0 2.19492e-10 0 0 
1571.24 1.44329e-14 0 0 0 0 0 5.75295e-12 1.50102e-12 1.50102e-12 0 1.02552e-28 0 2.19492e-10 0 0 
1571.29 1.33227e-14 0 0 0 0 0 5.31042e-12 1.38556e-12 1.38556e-12 0 9.46633e-29 0 2.19492e-10 0 0 
1571.35 1.33227e-14 0 0 0 0 0 5.31042e-12 1.38556e-12 1.38556e-12 0 9.46633e-29 0 2.19492e-10 0 0 
1571.4 1.37668e-14 0 0 0 0 0 5.48743e-12 1.43174e-12 1.43174e-12 0 9.78188e-29 0 2.19492e-10 0 0 
1571.46 1.33227e-14 0 0 0 0 0 5.31042e-12 1.38556e-12 1.38556e-12 0 9.46633e-29 0 2.19492e-10 0 0 
1571.51 1.28786e-14 0 0 0 0 0 5.1334e-12 1.33937e-12 1.33937e-12 0 9.15079e-29 0 2.19492e-10 0 0 
1571.57 1.24345e-14 0 0 0 0 0 4.95639e-12 1.29319e-12 1.29319e-12 0 8.83524e-29 0 2.19492e-10 0 0 
1571.62 1.11022e-14 0 0 0 0 0 4.42535e-12 1.15463e-12 1.15463e-12 0 7.88861e-29 0 2.19492e-10 0 0 
1571.68 1.08802e-14 0 0 0 0 0 4.33684e-12 1.13154e-12 1.13154e-12 0 7.73084e-29 0 2.19492e-10 0 0 
1571.73 1.13243e-14 0 0 0 0 0 4.51386e-12 1.17772e-12 1.17772e-12 0 8.04638e-29 0 2.19492e-10 0 0 
1571.79 1.04361e-14 0 0 0 0 0 4.15983e-12 1.08535e-12 1.08535e-12 0 7.41529e-29 0 2.19492e-10 0 0 
1571.84 9.54792e-15 0 0 0 0 0 3.8058e-12 9.92983e-13 9.92983e-13 0 6.7842e-29 0 2.19492e-10 0 0 
1571.9 8.65974e-15 0 0 0 0 0 3.45177e-12 9.00613e-13 9.00613e-13 0 6.15312e-29 0 2.19492e-10 0 0 
1571.95 8.43769e-15 0 0 0 0 0 3.36327e-12 8.7752e-13 8.7752e-13 0 5.99534e-29 0 2.19492e-10 0 0 
1572.01 8.65974e-15 0 0 0 0 0 3.45177e-12 9.00613e-13 9.00613e-13 0 6.15312e-29 0 2.19492e-10 0 0 
1572.06 8.21565e-15 0 0 0 0 0 3.27476e-12 8.54428e-13 8.54428e-13 0 5.83757e-29 0 2.19492e-10 0 0 
1572.12 7.32747e-15 0 0 0 0 0 2.92073e-12 7.62057e-13 7.62057e-13 0 5.20648e-29 0 2.19492e-10 0 0 
1572.17 7.32747e-15 0 0 0 0 0 2.92073e-12 7.62057e-13 7.62057e-13 0 5.20648e-29 0 2.19492e-10 0 0 
1572.23 6.88338e-15 0 0 0 0 0 2.74372e-12 7.15872e-13 7.15872e-13 0 4.89094e-29 0 2.19492e-10 0 0 
1572.28 6.43929e-15 0 0 0 0 0 2.5667e-12 6.69687e-13 6.69687e-13 0 4.57539e-29 0 2.19492e-10 0 0 
1572.34 6.66134e-15 0 0 0 0 0 2.65521e-12 6.92779e-13 6.92779e-13 0 4.73317e-29 0 2.19492e-10 0 0 
1572.39 6.43929e-15 0 0 0 0 0 2.5667e-12 6.69687e-13 6.69687e-13 0 4.57539e-29 0 2.19492e-10 0 0 
1572.45 5.9952e-15 0 0 0 0 0 2.38969e-12 6.23501e-13 6.23501e-13 0 4.25985e-29 0 2.19492e-10 0 0 
1572.5 5.32907e-15 0 0 0 0 0 2.12417e-12 5.54223e-13 5.54223e-13 0 3.78653e-29 0 2.19492e-10 0 0 
1572.56 5.32907e-15 0 0 0 0 0 2.12417e-12 5.54223e-13 5.54223e-13 0 3.78653e-29 0 2.19492e-10 0 0 
1572.61 4.44089e-15 0 0 0 0 0 1.77014e-12 4.61853e-13 4.61853e-13 0 3.15544e-29 0 2.19492e-10 0 0 
1572.67 3.9968e-15 0 0 0 0 0 1.59313e-12 4.15668e-13 4.15668e-13 0 2.8399e-29 0 2.19492e-10 0 0 
1572.72 3.9968e-15 0 0 0 0 0 1.59313e-12 4.15668e-13 4.15668e-13 0 2.8399e-29 0 2.19492e-10 0 0 
1572.78 3.77476e-15 0 0 0 0 0 1.50462e-12 3.92575e-13 3.92575e-13 0 2.68213e-29 0 2.19492e-10 0 0 
1572.83 3.33067e-15 0 0 0 0 0 1.3276e-12 3.4639e-13 3.4639e-13 0 2.36658e-29 0 2.19492e-10 0 0 
1572.89 3.10862e-15 0 0 0 0 0 1.2391e-12 3.23297e-13 3.23297e-13 0 2.20881e-29 0 2.19492e-10 0 0 
1572.94 2.66454e-15 0 0 0 0 0 1.06208e-12 2.77112e-13 2.77112e-13 0 1.89327e-29 0 2.19492e-10 0 0 
1573 1.77636e-15 0 0 0 0 0 7.08056e-13 1.84741e-13 1.84741e-13 0 1.26218e-29 0 2.19492e-10 0 0 
1573 2.22045e-15 0 0 0 0 0 8.8507e-13 2.30926e-13 2.30926e-13 0 1.57772e-29 0 2.19492e-10 0 0 
1573.06 2.22045e-15 0 0 0 0 0 8.8507e-13 2.30926e-13 2.30926e-13 0 1.57772e-29 0 2.19492e-10 0 0 
1573.13 2.22045e-15 0 0 0 0 0 8.8507e-13 2.30926e-13 2.30926e-13 0 1.57772e-29 0 2.19492e-10 0 0 
1573.22 1.55431e-15 0 0 0 0 0 6.19549e-13 1.61648e-13 1.61648e-13 0 1.10441e-29 0 2.19492e-10 0 0 
1573.32 8.88178e-16 0 0 0 0 0 3.54028e-13 9.23706e-14 9.23706e-14 0 6.31089e-30 0 2.19492e-10 0 0 
1573.43 9.99201e-16 0 0 0 0 0 3.98281e-13 1.03917e-13 1.03917e-13 0 7.09975e-30 0 2.19492e-10 0 0 
1573.57 7.77156e-16 0 0 0 0 0 3.09774e-13 8.08242e-14 8.08242e-14 0 5.52203e-30 0 2.19492e-10 0 0 
1573.73 6.66134e-16 0 0 0 0 0 2.65521e-13 6.92779e-14 6.92779e-14 0 4.73317e-30 0 2.19492e-10 0 0 
1573.92 7.77156e-16 0 0 0 0 0 3.09774e-13 8.08242e-14 8.08242e-14 0 5.52203e-30 0 2.19492e-10 0 0 
1574.14 6.10623e-16 0 0 0 0 0 2.43394e-13 6.35048e-14 6.35048e-14 0 4.33873e-30 0 2.19492e-10 0 0 
1574.4 4.996e-16 0 0 0 0 0 1.99141e-13 5.19584e-14 5.19584e-14 0 3.54987e-30 0 2.19492e-10 0 0 
1574.71 5.55112e-16 0 0 0 0 0 2.21267e-13 5.77316e-14 5.77316e-14 0 3.9443e-30 0 2.19492e-10 0 0 
1575.07 6.66134e-16 0 0 0 0 0 2.65521e-13 6.92779e-14 6.92779e-14 0 4.73317e-30 0 2.19492e-10 0 0 
1575.49 5.55112e-16 0 0 0 0 0 2.21267e-13 5.77316e-14 5.77316e-14 0 3.9443e-30 0 2.19492e-10 0 0 
1575.98 4.71845e-16 0 0 0 0 0 1.88077e-13 4.90719e-14 4.90719e-14 0 3.35266e-30 0 2.19492e-10 0 0 
1576.57 4.996e-16 0 0 0 0 0 1.99141e-13 5.19584e-14 5.19584e-14 0 3.54987e-30 0 2.19492e-10 0 0 
1577.25 4.44089e-16 0 0 0 0 0 1.77014e-13 4.61853e-14 4.61853e-14 0 3.15544e-30 0 2.19492e-10 0 0 
1578.06 4.02456e-16 0 0 0 0 0 1.60419e-13 4.18554e-14 4.18554e-14 0 2.85962e-30 0 2.19492e-10 0 0 
1579 4.16334e-16 0 0 0 0 0 1.65951e-13 4.32987e-14 4.32987e-14 0 2.95823e-30 0 2.19492e-10 0 0 
1579 3.60822e-16 0 0 0 0 0 1.43824e-13 3.75255e-14 3.75255e-14 0 2.5638e-30 0 2.19492e-10 0 0 
1580.01 3.88578e-16 0 0 0 0 0 1.54887e-13 4.04121e-14 4.04121e-14 0 2.76101e-30 0 2.19492e-10 0 0 
1581.02 4.02456e-16 0 0 0 0 0 1.60419e-13 4.18554e-14 4.18554e-14 0 2.85962e-30 0 2.19492e-10 0 0 
1582.03 3.747e-16 0 0 0 0 0 1.49356e-13 3.89688e-14 3.89688e-14 0 2.66241e-30 0 2.19492e-10 0 0 
1583.04 3.60822e-16 0 0 0 0 0 1.43824e-13 3.75255e-14 3.75255e-14 0 2.5638e-30 0 2.19492e-10 0 0 
1584.06 3.747e-16 0 0 0 0 0 1.49356e-13 3.89688e-14 3.89688e-14 0 2.66241e-30 0 2.19492e-10 0 0 
1585.07 3.60822e-16 0 0 0 0 0 1.43824e-13 3.75255e-14 3.75255e-14 0 2.5638e-30 0 2.19492e-10 0 0 
1586.08 3.19189e-16 0 0 0 0 0 1.27229e-13 3.31957e-14 3.31957e-14 0 2.26798e-30 0 2.19492e-10 0 0 
1587.09 3.05311e-16 0 0 0 0 0 1.21697e-13 3.17524e-14 3.17524e-14 0 2.16937e-30 0 2.19492e-10 0 0 
1588.1 3.19189e-16 0 0 0 0 0 1.27229e-13 3.31957e-14 3.31957e-14 0 2.26798e-30 0 2.19492e-10 0 0 
1589.11 3.33067e-16 0 0 0 0 0 1.3276e-13 3.4639e-14 3.4639e-14 0 2.36658e-30 0 2.19492e-10 0 0 
1590.12 3.19189e-16 0 0 0 0 0 1.27229e-13 3.31957e-14 3.31957e-14 0 2.26798e-30 0 2.19492e-10 0 0 
1591.13 3.33067e-16 0 0 0 0 0 1.3276e-13 3.4639e-14 3.4639e-14 0 2.36658e-30 0 2.19492e-10 0 0 
1592.14 3.33067e-16 0 0 0 0 0 1.3276e-13 3.4639e-14 3.4639e-14 0 2.36658e-30 0 2.19492e-10 0 0 
1593.16 3.05311e-16 0 0 0 0 0 1.21697e-13 3.17524e-14 3.17524e-14 0 2.16937e-30 0 2.19492e-10 0 0 
1594.17 3.05311e-16 0 0 0 0 0 1.21697e-13 3.17524e-14 3.17524e-14 0 2.16937e-30 0 2.19492e-10 0 0 
1595.18 2.91434e-16 0 0 0 0 0 1.16165e-13 3.03091e-14 3.03091e-14 0 2.07076e-30 0 2.19492e-10 0 0 
1596.19 2.63678e-16 0 0 0 0 0 1.05102e-13 2.74225e-14 2.74225e-14 0 1.87354e-30 0 2.19492e-10 0 0 
1597.2 2.77556e-16 0 0 0 0 0 1.10634e-13 2.88658e-14 2.88658e-14 0 1.97215e-30 0 2.19492e-10 0 0 
1598.21 2.77556e-16 0 0 0 0 0 1.10634e-13 2.88658e-14 2.88658e-14 0 1.97215e-30 0 2.19492e-10 0 0 
1599.22 2.77556e-16 0 0 0 0 0 1.10634e-13 2.88658e-14 2.88658e-14 0 1.97215e-30 0 2.19492e-10 0 0 
1600.23 3.19189e-16 0 0 0 0 0 1.27229e-13 3.31957e-14 3.31957e-14 0 2.26798e-30 0 2.19492e-10 0 0 
1601.24 3.05311e-16 0 0 0 0 0 1.21697e-13 3.17524e-14 3.17524e-14 0 2.16937e-30 0 2.19492e-10 0 0 
1602.26 3.05311e-16 0 0 0 0 0 1.21697e-13 3.17524e-14 3.17524e-14 0 2.16937e-30 0 2.19492e-10 0 0 
1603.27 3.05311e-16 0 0 0 0 0 1.21697e-13 3.17524e-14 3.17524e-14 0 2.16937e-30 0 2.19492e-10 0 0 
1604.28 3.19189e-16 0 0 0 0 0 1.27229e-13 3.31957e-14 3.31957e-14 0 2.26798e-30 0 2.19492e-10 0 0 
1605.29 3.46945e-16 0 0 0 0 0 1.38292e-13 3.60822e-14 3.60822e-14 0 2.46519e-30 0 2.19492e-10 0 0 
1606.3 3.19189e-16 0 0 0 0 0 1.27229e-13 3.31957e-14 3.31957e-14 0 2.26798e-30 0 2.19492e-10 0 0 
1607.31 3.05311e-16 0 0 0 0 0 1.21697e-13 3.17524e-14 3.17524e-14 0 2.16937e-30 0 2.19492e-10 0 0 
1608.32 3.19189e-16 0 0 0 0 0 1.27229e-13 3.31957e-14 3.31957e-14 0 2.26798e-30 0 2.19492e-10 0 0 
1609.33 3.19189e-16 0 0 0 0 0 1.27229e-13 3.31957e-14 3.31957e-14 0 2.26798e-30 0 2.19492e-10 0 0 
1610.34 3.19189e-16 0 0 0 0 0 1.27229e-13 3.31957e-14 3.31957e-14 0 2.26798e-30 0 2.19492e-10 0 0 
1611.36 3.60822e-16 0 0 0 0 0 1.43824e-13 3.75255e-14 3.75255e-14 0 2.5638e-30 0 2.19492e-10 0 0 
1612.37 3.19189e-16 0 0 0 0 0 1.27229e-13 3.31957e-14 3.31957e-14 0 2.26798e-30 0 2.19492e-10 0 0 
1613.38 2.77556e-16 0 0 0 0 0 1.10634e-13 2.88658e-14 2.88658e-14 0 1.97215e-30 0 2.19492e-10 0 0 
1614.39 2.77556e-16 0 0 0 0 0 1.10634e-13 2.88658e-14 2.88658e-14 0 1.97215e-30 0 2.19492e-10 0 0 
1615.4 2.91434e-16 0 0 0 0 0 1.16165e-13 3.03091e-14 3.03091e-14 0 2.07076e-30 0 2.19492e-10 0 0 
1616.41 3.05311e-16 0 0 0 0 0 1.21697e-13 3.17524e-14 3.17524e-14 0 2.16937e-30 0 2.19492e-10 0 0 
1617.42 2.77556e-16 0 0 0 0 0 1.10634e-13 2.88658e-14 2.88658e-14 0 1.97215e-30 0 2.19492e-10 0 0 
1618.43 2.63678e-16 0 0 0 0 0 1.05102e-13 2.74225e-14 2.74225e-14 0 1.87354e-30 0 2.19492e-10 0 0 
1619.44 2.63678e-16 0 0 0 0 0 1.05102e-13 2.74225e-14 2.74225e-14 0 1.87354e-30 0 2.19492e-10 0 0 
1620.46 2.77556e-16 0 0 0 0 0 1.10634e-13 2.88658e-14 2.88658e-14 0 1.97215e-30 0 2.19492e-10 0 0 
1621.47 2.77556e-16 0 0 0 0 0 1.10634e-13 2.88658e-14 2.88658e-14 0 1.97215e-30 0 2.19492e-10 0 0 
1622.48 2.08167e-16 0 0 0 0 0 8.29753e-14 2.16493e-14 2.16493e-14 0 1.47911e-30 0 2.19492e-10 0 0 
1623.49 1.94289e-16 0 0 0 0 0 7.74436e-14 2.02061e-14 2.02061e-14 0 1.38051e-30 0 2.19492e-10 0 0 
1624.5 2.35922e-16 0 0 0 0 0 9.40387e-14 2.45359e-14 2.45359e-14 0 1.67633e-30 0 2.19492e-10 0 0 
1625.51 2.08167e-16 0 0 0 0 0 8.29753e-14 2.16493e-14 2.16493e-14 0 1.47911e-30 0 2.19492e-10 0 0 
1626.52 1.80411e-16 0 0 0 0 0 7.19119e-14 1.87628e-14 1.87628e-14 0 1.2819e-30 0 2.19492e-10 0 0 
1627.53 1.80411e-16 0 0 0 0 0 7.19119e-14 1.87628e-14 1.87628e-14 0 1.2819e-30 0 2.19492e-10 0 0 
1628.54 1.94289e-16 0 0 0 0 0 7.74436e-14 2.02061e-14 2.02061e-14 0 1.38051e-30 0 2.19492e-10 0 0 
1629.56 1.80411e-16 0 0 0 0 0 7.19119e-14 1.87628e-14 1.87628e-14 0 1.2819e-30 0 2.19492e-10 0 0 
1630.57 2.08167e-16 0 0 0 0 0 8.29753e-14 2.16493e-14 2.16493e-14 0 1.47911e-30 0 2.19492e-10 0 0 
1631.58 2.22045e-16 0 0 0 0 0 8.8507e-14 2.30926e-14 2.30926e-14 0 1.57772e-30 0 2.19492e-10 0 0 
1632.59 2.22045e-16 0 0 0 0 0 8.8507e-14 2.30926e-14 2.30926e-14 0 1.57772e-30 0 2.19492e-10 0 0 
1633.6 2.63678e-16 0 0 0 0 0 1.05102e-13 2.74225e-14 2.74225e-14 0 1.87354e-30 0 2.19492e-10 0 0 
1634.61 2.498e-16 0 0 0 0 0 9.95704e-14 2.59792e-14 2.59792e-14 0 1.77494e-30 0 2.19492e-10 0 0 
1635.62 1.94289e-16 0 0 0 0 0 7.74436e-14 2.02061e-14 2.02061e-14 0 1.38051e-30 0 2.19492e-10 0 0 
1636.63 1.94289e-16 0 0 0 0 0 7.74436e-14 2.02061e-14 2.02061e-14 0 1.38051e-30 0 2.19492e-10 0 0 
1637.64 2.22045e-16 0 0 0 0 0 8.8507e-14 2.30926e-14 2.30926e-14 0 1.57772e-30 0 2.19492e-10 0 0 
1638.66 2.08167e-16 0 0 0 0 0 8.29753e-14 2.16493e-14 2.16493e-14 0 1.47911e-30 0 2.19492e-10 0 0 
1639.67 2.22045e-16 0 0 0 0 0 8.8507e-14 2.30926e-14 2.30926e-14 0 1.57772e-30 0 2.19492e-10 0 0 
1640.68 2.22045e-16 0 0 0 0 0 8.8507e-14 2.30926e-14 2.30926e-14 0 1.57772e-30 0 2.19492e-10 0 0 
1641.69 1.94289e-16 0 0 0 0 0 7.74436e-14 2.02061e-14 2.02061e-14 0 1.38051e-30 0 2.19492e-10 0 0 
1642.7 1.94289e-16 0 0 0 0 0 7.74436e-14 2.02061e-14 2.02061e-14 0 1.38051e-30 0 2.19492e-10 0 0 
1643.71 1.80411e-16 0 0 0 0 0 7.19119e-14 1.87628e-14 1.87628e-14 0 1.2819e-30 0 2.19492e-10 0 0 
1644.72 1.66533e-16 0 0 0 0 0 6.63802e-14 1.73195e-14 1.73195e-14 0 1.18329e-30 0 2.19492e-10 0 0 
1645.73 1.38778e-16 0 0 0 0 0 5.53169e-14 1.44329e-14 1.44329e-14 0 9.86076e-31 0 2.19492e-10 0 0 
1646.74 9.71445e-17 0 0 0 0 0 3.87218e-14 1.0103e-14 1.0103e-14 0 6.90253e-31 0 2.19492e-10 0 0 
1647.76 9.71445e-17 0 0 0 0 0 3.87218e-14 1.0103e-14 1.0103e-14 0 6.90253e-31 0 2.19492e-10 0 0 
1648.77 9.71445e-17 0 0 0 0 0 3.87218e-14 1.0103e-14 1.0103e-14 0 6.90253e-31 0 2.19492e-10 0 0 
1649.78 9.71445e-17 0 0 0 0 0 3.87218e-14 1.0103e-14 1.0103e-14 0 6.90253e-31 0 2.19492e-10 0 0 
1650.79 8.32667e-17 0 0 0 0 0 3.31901e-14 8.65974e-15 8.65974e-15 0 5.91646e-31 0 2.19492e-10 0 0 
1651.8 6.93889e-17 0 0 0 0 0 2.76584e-14 7.21645e-15 7.21645e-15 0 4.93038e-31 0 2.19492e-10 0 0 
1652.81 6.93889e-17 0 0 0 0 0 2.76584e-14 7.21645e-15 7.21645e-15 0 4.93038e-31 0 2.19492e-10 0 0 
1653.82 5.55112e-17 0 0 0 0 0 2.21267e-14 5.77316e-15 5.77316e-15 0 3.9443e-31 0 2.19492e-10 0 0 
1654.83 4.16334e-17 0 0 0 0 0 1.65951e-14 4.32987e-15 4.32987e-15 0 2.95823e-31 0 2.19492e-10 0 0 
1655.84 0 0 0 0 0 0 0 0 0 0 0 0 2.19492e-10 0 0 
1656.86 -4.16334e-17 0 0 0 0 0 -1.65951e-14 -4.32987e-15 -4.32987e-15 0 -2.95823e-31 0 2.19492e-10 0 0 
1657.87 -1.38778e-17 0 0 0 0 0 -5.53169e-15 -1.44329e-15 -1.44329e-15 0 -9.86076e-32 0 2.19492e-10 0 0 
1658.88 1.38778e-17 0 0 0 0 0 5.53169e-15 1.44329e-15 1.44329e-15 0 9.86076e-32 0 2.19492e-10 0 0 
1659.89 -2.77556e-17 0 0 0 0 0 -1.10634e-14 -2.88658e-15 -2.88658e-15 0 -1.97215e-31 0 2.19492e-10 0 0 
1660.9 -1.38778e-17 0 0 0 0 0 -5.53169e-15 -1.44329e-15 -1.44329e-15 0 -9.86076e-32 0 2.19492e-10 0 0 
1661.91 2.77556e-17 0 0 0 0 0 1.10634e-14 2.88658e-15 2.88658e-15 0 1.97215e-31 0 2.19492e-10 0 0 
1662.92 -2.77556e-17 0 0 0 0 0 -1.10634e-14 -2.88658e-15 -2.88658e-15 0 -1.97215e-31 0 2.19492e-10 0 0 
1663.93 -1.38778e-17 0 0 0 0 0 -5.53169e-15 -1.44329e-15 -1.44329e-15 0 -9.86076e-32 0 2.19492e-10 0 0 
1664.94 4.16334e-17 0 0 0 0 0 1.65951e-14 4.32987e-15 4.32987e-15 0 2.95823e-31 0 2.19492e-10 0 0 
1665.96 1.38778e-17 0 0 0 0 0 5.53169e-15 1.44329e-15 1.44329e-15 0 9.86076e-32 0 2.19492e-10 0 0 
1666.97 -1.38778e-17 0 0 0 0 0 -5.53169e-15 -1.44329e-15 -1.44329e-15 0 -9.86076e-32 0 2.19492e-10 0 0 
1667.98 -2.77556e-17 0 0 0 0 0 -1.10634e-14 -2.88658e-15 -2.88658e-15 0 -1.97215e-31 0 2.19492e-10 0 0 
1668.99 -1.38778e-17 0 0 0 0 0 -5.53169e-15 -1.44329e-15 -1.44329e-15 0 -9.86076e-32 0 2.19492e-10 0 0 
1670 0 0 0 0 0 0 0 0 0 0 0 0 2.19492e-10 0 0 
