# ASCII 1D datafile generated by TiberCAD
# x Strain_11 Strain_22 Strain_33 Strain_12 Strain_23 Strain_13 Stress_11 Stress_22 Stress_33 Stress_12 Stress_23 Stress_13 Displacement_x Displacement_y Displacement_z 
0 -1.21982e-13 0 0 0 0 0 -4.86221e-11 -1.26862e-11 -1.26862e-11 0 -8.66736e-28 0 -4.86221e-31 0 0 
9.97664 -1.21982e-13 0 0 0 0 0 -4.86221e-11 -1.26862e-11 -1.26862e-11 0 -8.66736e-28 0 -1.21697e-21 0 0 
19.8873 -1.21982e-13 0 0 0 0 0 -4.86221e-11 -1.26862e-11 -1.26862e-11 0 -8.66736e-28 0 -2.4259e-21 0 0 
29.7324 -1.21982e-13 0 0 0 0 0 -4.86221e-11 -1.26862e-11 -1.26862e-11 0 -8.66736e-28 0 -3.62682e-21 0 0 
39.5124 -1.21982e-13 0 0 0 0 0 -4.86221e-11 -1.26862e-11 -1.26862e-11 0 -8.66736e-28 0 -4.81981e-21 0 0 
49.2277 -1.21982e-13 0 0 0 0 0 -4.86221e-11 -1.26862e-11 -1.26862e-11 0 -8.66736e-28 0 -6.0049e-21 0 0 
58.8787 -1.21982e-13 0 0 0 0 0 -4.86221e-11 -1.26862e-11 -1.26862e-11 0 -8.66736e-28 0 -7.18216e-21 0 0 
68.4659 -1.21982e-13 0 0 0 0 0 -4.86221e-11 -1.26862e-11 -1.26862e-11 0 -8.66736e-28 0 -8.35162e-21 0 0 
77.9897 -1.21982e-13 0 0 0 0 0 -4.86221e-11 -1.26862e-11 -1.26862e-11 0 -8.66736e-28 0 -9.51335e-21 0 0 
87.4504 -1.21982e-13 0 0 0 0 0 -4.86221e-11 -1.26862e-11 -1.26862e-11 0 -8.66736e-28 0 -1.06674e-20 0 0 
96.8487 -1.21982e-13 0 0 0 0 0 -4.86221e-11 -1.26862e-11 -1.26862e-11 0 -8.66736e-28 0 -1.18138e-20 0 0 
106.185 -1.21982e-13 0 0 0 0 0 -4.86221e-11 -1.26862e-11 -1.26862e-11 0 -8.66736e-28 0 -1.29526e-20 0 0 
115.459 -1.21982e-13 0 0 0 0 0 -4.86221e-11 -1.26862e-11 -1.26862e-11 0 -8.66736e-28 0 -1.40839e-20 0 0 
124.672 -1.21982e-13 0 0 0 0 0 -4.86221e-11 -1.26862e-11 -1.26862e-11 0 -8.66736e-28 0 -1.52078e-20 0 0 
133.824 -1.21982e-13 0 0 0 0 0 -4.86221e-11 -1.26862e-11 -1.26862e-11 0 -8.66736e-28 0 -1.63241e-20 0 0 
142.915 -1.21982e-13 0 0 0 0 0 -4.86221e-11 -1.26862e-11 -1.26862e-11 0 -8.66736e-28 0 -1.74331e-20 0 0 
151.947 -1.21982e-13 0 0 0 0 0 -4.86221e-11 -1.26862e-11 -1.26862e-11 0 -8.66736e-28 0 -1.85348e-20 0 0 
160.918 -1.21982e-13 0 0 0 0 0 -4.86221e-11 -1.26862e-11 -1.26862e-11 0 -8.66736e-28 0 -1.96292e-20 0 0 
169.831 -1.21982e-13 0 0 0 0 0 -4.86221e-11 -1.26862e-11 -1.26862e-11 0 -8.66736e-28 0 -2.07163e-20 0 0 
178.684 -1.21982e-13 0 0 0 0 0 -4.86221e-11 -1.26862e-11 -1.26862e-11 0 -8.66736e-28 0 -2.17963e-20 0 0 
187.479 -1.21982e-13 0 0 0 0 0 -4.86221e-11 -1.26862e-11 -1.26862e-11 0 -8.66736e-28 0 -2.28691e-20 0 0 
196.215 -1.21982e-13 0 0 0 0 0 -4.86221e-11 -1.26862e-11 -1.26862e-11 0 -8.66736e-28 0 -2.39348e-20 0 0 
204.894 -1.21982e-13 0 0 0 0 0 -4.86221e-11 -1.26862e-11 -1.26862e-11 0 -8.66736e-28 0 -2.49934e-20 0 0 
213.515 -1.21982e-13 0 0 0 0 0 -4.86221e-11 -1.26862e-11 -1.26862e-11 0 -8.66736e-28 0 -2.60451e-20 0 0 
222.08 -1.21982e-13 0 0 0 0 0 -4.86221e-11 -1.26862e-11 -1.26862e-11 0 -8.66736e-28 0 -2.70898e-20 0 0 
230.587 -1.21982e-13 0 0 0 0 0 -4.86221e-11 -1.26862e-11 -1.26862e-11 0 -8.66736e-28 0 -2.81276e-20 0 0 
239.039 -1.21982e-13 0 0 0 0 0 -4.86221e-11 -1.26862e-11 -1.26862e-11 0 -8.66736e-28 0 -2.91585e-20 0 0 
247.434 -1.21982e-13 0 0 0 0 0 -4.86221e-11 -1.26862e-11 -1.26862e-11 0 -8.66736e-28 0 -3.01826e-20 0 0 
255.774 -1.21982e-13 0 0 0 0 0 -4.86221e-11 -1.26862e-11 -1.26862e-11 0 -8.66736e-28 0 -3.11999e-20 0 0 
264.059 -1.21982e-13 0 0 0 0 0 -4.86221e-11 -1.26862e-11 -1.26862e-11 0 -8.66736e-28 0 -3.22105e-20 0 0 
272.289 -1.21982e-13 0 0 0 0 0 -4.86221e-11 -1.26862e-11 -1.26862e-11 0 -8.66736e-28 0 -3.32144e-20 0 0 
280.465 -1.21982e-13 0 0 0 0 0 -4.86221e-11 -1.26862e-11 -1.26862e-11 0 -8.66736e-28 0 -3.42117e-20 0 0 
288.586 -1.21982e-13 0 0 0 0 0 -4.86221e-11 -1.26862e-11 -1.26862e-11 0 -8.66736e-28 0 -3.52024e-20 0 0 
296.654 -1.21982e-13 0 0 0 0 0 -4.86221e-11 -1.26862e-11 -1.26862e-11 0 -8.66736e-28 0 -3.61865e-20 0 0 
304.668 -1.21982e-13 0 0 0 0 0 -4.86221e-11 -1.26862e-11 -1.26862e-11 0 -8.66736e-28 0 -3.71641e-20 0 0 
312.63 -1.21982e-13 0 0 0 0 0 -4.86221e-11 -1.26862e-11 -1.26862e-11 0 -8.66736e-28 0 -3.81353e-20 0 0 
320.539 -1.21982e-13 0 0 0 0 0 -4.86221e-11 -1.26862e-11 -1.26862e-11 0 -8.66736e-28 0 -3.91e-20 0 0 
328.395 -1.21982e-13 0 0 0 0 0 -4.86221e-11 -1.26862e-11 -1.26862e-11 0 -8.66736e-28 0 -4.00584e-20 0 0 
336.199 -1.21982e-13 0 0 0 0 0 -4.86221e-11 -1.26862e-11 -1.26862e-11 0 -8.66736e-28 0 -4.10104e-20 0 0 
343.952 -1.21982e-13 0 0 0 0 0 -4.86221e-11 -1.26862e-11 -1.26862e-11 0 -8.66736e-28 0 -4.19561e-20 0 0 
351.654 -1.21982e-13 0 0 0 0 0 -4.86221e-11 -1.26862e-11 -1.26862e-11 0 -8.66736e-28 0 -4.28955e-20 0 0 
359.305 -1.21982e-13 0 0 0 0 0 -4.86221e-11 -1.26862e-11 -1.26862e-11 0 -8.66736e-28 0 -4.38288e-20 0 0 
366.905 -1.21982e-13 0 0 0 0 0 -4.86221e-11 -1.26862e-11 -1.26862e-11 0 -8.66736e-28 0 -4.47558e-20 0 0 
374.454 -1.21982e-13 0 0 0 0 0 -4.86221e-11 -1.26862e-11 -1.26862e-11 0 -8.66736e-28 0 -4.56768e-20 0 0 
381.954 -1.21982e-13 0 0 0 0 0 -4.86221e-11 -1.26862e-11 -1.26862e-11 0 -8.66736e-28 0 -4.65916e-20 0 0 
389.404 -1.21982e-13 0 0 0 0 0 -4.86221e-11 -1.26862e-11 -1.26862e-11 0 -8.66736e-28 0 -4.75004e-20 0 0 
396.805 -1.21982e-13 0 0 0 0 0 -4.86221e-11 -1.26862e-11 -1.26862e-11 0 -8.66736e-28 0 -4.84032e-20 0 0 
404.157 -1.21982e-13 0 0 0 0 0 -4.86221e-11 -1.26862e-11 -1.26862e-11 0 -8.66736e-28 0 -4.93e-20 0 0 
411.461 -1.21982e-13 0 0 0 0 0 -4.86221e-11 -1.26862e-11 -1.26862e-11 0 -8.66736e-28 0 -5.01909e-20 0 0 
418.716 -1.21982e-13 0 0 0 0 0 -4.86221e-11 -1.26862e-11 -1.26862e-11 0 -8.66736e-28 0 -5.10759e-20 0 0 
425.923 -1.21982e-13 0 0 0 0 0 -4.86221e-11 -1.26862e-11 -1.26862e-11 0 -8.66736e-28 0 -5.1955e-20 0 0 
433.082 -1.21982e-13 0 0 0 0 0 -4.86221e-11 -1.26862e-11 -1.26862e-11 0 -8.66736e-28 0 -5.28283e-20 0 0 
440.194 -1.21982e-13 0 0 0 0 0 -4.86221e-11 -1.26862e-11 -1.26862e-11 0 -8.66736e-28 0 -5.36959e-20 0 0 
447.259 -1.21982e-13 0 0 0 0 0 -4.86221e-11 -1.26862e-11 -1.26862e-11 0 -8.66736e-28 0 -5.45577e-20 0 0 
454.277 -1.21982e-13 0 0 0 0 0 -4.86221e-11 -1.26862e-11 -1.26862e-11 0 -8.66736e-28 0 -5.54138e-20 0 0 
461.249 -1.21982e-13 0 0 0 0 0 -4.86221e-11 -1.26862e-11 -1.26862e-11 0 -8.66736e-28 0 -5.62642e-20 0 0 
468.175 -1.21982e-13 0 0 0 0 0 -4.86221e-11 -1.26862e-11 -1.26862e-11 0 -8.66736e-28 0 -5.7109e-20 0 0 
475.055 -1.21982e-13 0 0 0 0 0 -4.86221e-11 -1.26862e-11 -1.26862e-11 0 -8.66736e-28 0 -5.79482e-20 0 0 
481.889 -1.21982e-13 0 0 0 0 0 -4.86221e-11 -1.26862e-11 -1.26862e-11 0 -8.66736e-28 0 -5.87819e-20 0 0 
488.678 -1.21982e-13 0 0 0 0 0 -4.86221e-11 -1.26862e-11 -1.26862e-11 0 -8.66736e-28 0 -5.96101e-20 0 0 
495.423 -1.21982e-13 0 0 0 0 0 -4.86221e-11 -1.26862e-11 -1.26862e-11 0 -8.66736e-28 0 -6.04327e-20 0 0 
502.122 -1.21982e-13 0 0 0 0 0 -4.86221e-11 -1.26862e-11 -1.26862e-11 0 -8.66736e-28 0 -6.125e-20 0 0 
508.778 -1.21982e-13 0 0 0 0 0 -4.86221e-11 -1.26862e-11 -1.26862e-11 0 -8.66736e-28 0 -6.20618e-20 0 0 
515.389 -1.21982e-13 0 0 0 0 0 -4.86221e-11 -1.26862e-11 -1.26862e-11 0 -8.66736e-28 0 -6.28683e-20 0 0 
521.956 -1.21982e-13 0 0 0 0 0 -4.86221e-11 -1.26862e-11 -1.26862e-11 0 -8.66736e-28 0 -6.36694e-20 0 0 
528.481 -1.21982e-13 0 0 0 0 0 -4.86221e-11 -1.26862e-11 -1.26862e-11 0 -8.66736e-28 0 -6.44653e-20 0 0 
534.962 -1.21982e-13 0 0 0 0 0 -4.86221e-11 -1.26862e-11 -1.26862e-11 0 -8.66736e-28 0 -6.52558e-20 0 0 
541.4 -1.21982e-13 0 0 0 0 0 -4.86221e-11 -1.26862e-11 -1.26862e-11 0 -8.66736e-28 0 -6.60412e-20 0 0 
547.795 -1.21982e-13 0 0 0 0 0 -4.86221e-11 -1.26862e-11 -1.26862e-11 0 -8.66736e-28 0 -6.68213e-20 0 0 
554.149 -1.21982e-13 0 0 0 0 0 -4.86221e-11 -1.26862e-11 -1.26862e-11 0 -8.66736e-28 0 -6.75963e-20 0 0 
560.46 -1.21982e-13 0 0 0 0 0 -4.86221e-11 -1.26862e-11 -1.26862e-11 0 -8.66736e-28 0 -6.83661e-20 0 0 
566.729 -1.21982e-13 0 0 0 0 0 -4.86221e-11 -1.26862e-11 -1.26862e-11 0 -8.66736e-28 0 -6.91309e-20 0 0 
572.957 -1.21982e-13 0 0 0 0 0 -4.86221e-11 -1.26862e-11 -1.26862e-11 0 -8.66736e-28 0 -6.98906e-20 0 0 
579.144 -1.21982e-13 0 0 0 0 0 -4.86221e-11 -1.26862e-11 -1.26862e-11 0 -8.66736e-28 0 -7.06453e-20 0 0 
585.29 -1.21982e-13 0 0 0 0 0 -4.86221e-11 -1.26862e-11 -1.26862e-11 0 -8.66736e-28 0 -7.1395e-20 0 0 
591.395 -1.21982e-13 0 0 0 0 0 -4.86221e-11 -1.26862e-11 -1.26862e-11 0 -8.66736e-28 0 -7.21397e-20 0 0 
597.46 -1.21982e-13 0 0 0 0 0 -4.86221e-11 -1.26862e-11 -1.26862e-11 0 -8.66736e-28 0 -7.28795e-20 0 0 
603.485 -1.21982e-13 0 0 0 0 0 -4.86221e-11 -1.26862e-11 -1.26862e-11 0 -8.66736e-28 0 -7.36144e-20 0 0 
609.47 -1.21982e-13 0 0 0 0 0 -4.86221e-11 -1.26862e-11 -1.26862e-11 0 -8.66736e-28 0 -7.43445e-20 0 0 
615.415 -1.21982e-13 0 0 0 0 0 -4.86221e-11 -1.26862e-11 -1.26862e-11 0 -8.66736e-28 0 -7.50697e-20 0 0 
621.321 -1.21982e-13 0 0 0 0 0 -4.86221e-11 -1.26862e-11 -1.26862e-11 0 -8.66736e-28 0 -7.57901e-20 0 0 
627.188 -1.21982e-13 0 0 0 0 0 -4.86221e-11 -1.26862e-11 -1.26862e-11 0 -8.66736e-28 0 -7.65058e-20 0 0 
633.016 -1.21982e-13 0 0 0 0 0 -4.86221e-11 -1.26862e-11 -1.26862e-11 0 -8.66736e-28 0 -7.72167e-20 0 0 
638.805 -1.21982e-13 0 0 0 0 0 -4.86221e-11 -1.26862e-11 -1.26862e-11 0 -8.66736e-28 0 -7.79229e-20 0 0 
644.557 -1.21982e-13 0 0 0 0 0 -4.86221e-11 -1.26862e-11 -1.26862e-11 0 -8.66736e-28 0 -7.86245e-20 0 0 
650.27 -1.21982e-13 0 0 0 0 0 -4.86221e-11 -1.26862e-11 -1.26862e-11 0 -8.66736e-28 0 -7.93214e-20 0 0 
655.945 -1.21982e-13 0 0 0 0 0 -4.86221e-11 -1.26862e-11 -1.26862e-11 0 -8.66736e-28 0 -8.00137e-20 0 0 
661.583 -1.21982e-13 0 0 0 0 0 -4.86221e-11 -1.26862e-11 -1.26862e-11 0 -8.66736e-28 0 -8.07014e-20 0 0 
667.184 -1.21982e-13 0 0 0 0 0 -4.86221e-11 -1.26862e-11 -1.26862e-11 0 -8.66736e-28 0 -8.13846e-20 0 0 
672.747 -1.21982e-13 0 0 0 0 0 -4.86221e-11 -1.26862e-11 -1.26862e-11 0 -8.66736e-28 0 -8.20632e-20 0 0 
678.274 -1.21982e-13 0 0 0 0 0 -4.86221e-11 -1.26862e-11 -1.26862e-11 0 -8.66736e-28 0 -8.27374e-20 0 0 
683.764 -1.21982e-13 0 0 0 0 0 -4.86221e-11 -1.26862e-11 -1.26862e-11 0 -8.66736e-28 0 -8.34071e-20 0 0 
689.218 -1.21982e-13 0 0 0 0 0 -4.86221e-11 -1.26862e-11 -1.26862e-11 0 -8.66736e-28 0 -8.40724e-20 0 0 
694.636 -1.21982e-13 0 0 0 0 0 -4.86221e-11 -1.26862e-11 -1.26862e-11 0 -8.66736e-28 0 -8.47333e-20 0 0 
700.018 -1.21982e-13 0 0 0 0 0 -4.86221e-11 -1.26862e-11 -1.26862e-11 0 -8.66736e-28 0 -8.53898e-20 0 0 
705.364 -1.21982e-13 0 0 0 0 0 -4.86221e-11 -1.26862e-11 -1.26862e-11 0 -8.66736e-28 0 -8.60419e-20 0 0 
710.675 -1.21982e-13 0 0 0 0 0 -4.86221e-11 -1.26862e-11 -1.26862e-11 0 -8.66736e-28 0 -8.66898e-20 0 0 
715.951 -1.21982e-13 0 0 0 0 0 -4.86221e-11 -1.26862e-11 -1.26862e-11 0 -8.66736e-28 0 -8.73333e-20 0 0 
721.192 -1.21982e-13 0 0 0 0 0 -4.86221e-11 -1.26862e-11 -1.26862e-11 0 -8.66736e-28 0 -8.79726e-20 0 0 
726.398 -1.21982e-13 0 0 0 0 0 -4.86221e-11 -1.26862e-11 -1.26862e-11 0 -8.66736e-28 0 -8.86077e-20 0 0 
731.57 -1.21982e-13 0 0 0 0 0 -4.86221e-11 -1.26862e-11 -1.26862e-11 0 -8.66736e-28 0 -8.92386e-20 0 0 
736.708 -1.21982e-13 0 0 0 0 0 -4.86221e-11 -1.26862e-11 -1.26862e-11 0 -8.66736e-28 0 -8.98653e-20 0 0 
741.812 -1.21982e-13 0 0 0 0 0 -4.86221e-11 -1.26862e-11 -1.26862e-11 0 -8.66736e-28 0 -9.04879e-20 0 0 
746.882 -1.21982e-13 0 0 0 0 0 -4.86221e-11 -1.26862e-11 -1.26862e-11 0 -8.66736e-28 0 -9.11063e-20 0 0 
751.918 -1.21982e-13 0 0 0 0 0 -4.86221e-11 -1.26862e-11 -1.26862e-11 0 -8.66736e-28 0 -9.17206e-20 0 0 
756.921 -1.21982e-13 0 0 0 0 0 -4.86221e-11 -1.26862e-11 -1.26862e-11 0 -8.66736e-28 0 -9.23309e-20 0 0 
761.891 -1.21982e-13 0 0 0 0 0 -4.86221e-11 -1.26862e-11 -1.26862e-11 0 -8.66736e-28 0 -9.29372e-20 0 0 
766.828 -1.21982e-13 0 0 0 0 0 -4.86221e-11 -1.26862e-11 -1.26862e-11 0 -8.66736e-28 0 -9.35394e-20 0 0 
771.733 -1.21982e-13 0 0 0 0 0 -4.86221e-11 -1.26862e-11 -1.26862e-11 0 -8.66736e-28 0 -9.41377e-20 0 0 
776.605 -1.21982e-13 0 0 0 0 0 -4.86221e-11 -1.26862e-11 -1.26862e-11 0 -8.66736e-28 0 -9.4732e-20 0 0 
781.444 -1.21982e-13 0 0 0 0 0 -4.86221e-11 -1.26862e-11 -1.26862e-11 0 -8.66736e-28 0 -9.53223e-20 0 0 
786.252 -1.21982e-13 0 0 0 0 0 -4.86221e-11 -1.26862e-11 -1.26862e-11 0 -8.66736e-28 0 -9.59088e-20 0 0 
791.028 -1.21982e-13 0 0 0 0 0 -4.86221e-11 -1.26862e-11 -1.26862e-11 0 -8.66736e-28 0 -9.64914e-20 0 0 
795.773 -1.21982e-13 0 0 0 0 0 -4.86221e-11 -1.26862e-11 -1.26862e-11 0 -8.66736e-28 0 -9.70701e-20 0 0 
800.486 -1.21982e-13 0 0 0 0 0 -4.86221e-11 -1.26862e-11 -1.26862e-11 0 -8.66736e-28 0 -9.7645e-20 0 0 
805.167 -1.21982e-13 0 0 0 0 0 -4.86221e-11 -1.26862e-11 -1.26862e-11 0 -8.66736e-28 0 -9.82161e-20 0 0 
809.818 -1.21982e-13 0 0 0 0 0 -4.86221e-11 -1.26862e-11 -1.26862e-11 0 -8.66736e-28 0 -9.87834e-20 0 0 
814.438 -1.21982e-13 0 0 0 0 0 -4.86221e-11 -1.26862e-11 -1.26862e-11 0 -8.66736e-28 0 -9.9347e-20 0 0 
819.028 -1.21982e-13 0 0 0 0 0 -4.86221e-11 -1.26862e-11 -1.26862e-11 0 -8.66736e-28 0 -9.99069e-20 0 0 
823.587 -1.21982e-13 0 0 0 0 0 -4.86221e-11 -1.26862e-11 -1.26862e-11 0 -8.66736e-28 0 -1.00463e-19 0 0 
828.116 -1.21982e-13 0 0 0 0 0 -4.86221e-11 -1.26862e-11 -1.26862e-11 0 -8.66736e-28 0 -1.01015e-19 0 0 
832.615 -1.21982e-13 0 0 0 0 0 -4.86221e-11 -1.26862e-11 -1.26862e-11 0 -8.66736e-28 0 -1.01564e-19 0 0 
837.084 -1.21982e-13 0 0 0 0 0 -4.86221e-11 -1.26862e-11 -1.26862e-11 0 -8.66736e-28 0 -1.02109e-19 0 0 
841.524 -1.21982e-13 0 0 0 0 0 -4.86221e-11 -1.26862e-11 -1.26862e-11 0 -8.66736e-28 0 -1.02651e-19 0 0 
845.934 -1.21982e-13 0 0 0 0 0 -4.86221e-11 -1.26862e-11 -1.26862e-11 0 -8.66736e-28 0 -1.03189e-19 0 0 
850.316 -1.21982e-13 0 0 0 0 0 -4.86221e-11 -1.26862e-11 -1.26862e-11 0 -8.66736e-28 0 -1.03723e-19 0 0 
854.668 -1.21982e-13 0 0 0 0 0 -4.86221e-11 -1.26862e-11 -1.26862e-11 0 -8.66736e-28 0 -1.04254e-19 0 0 
858.991 -1.21982e-13 0 0 0 0 0 -4.86221e-11 -1.26862e-11 -1.26862e-11 0 -8.66736e-28 0 -1.04782e-19 0 0 
863.286 -1.21982e-13 0 0 0 0 0 -4.86221e-11 -1.26862e-11 -1.26862e-11 0 -8.66736e-28 0 -1.05306e-19 0 0 
867.553 -1.21982e-13 0 0 0 0 0 -4.86221e-11 -1.26862e-11 -1.26862e-11 0 -8.66736e-28 0 -1.05826e-19 0 0 
871.791 -1.21982e-13 0 0 0 0 0 -4.86221e-11 -1.26862e-11 -1.26862e-11 0 -8.66736e-28 0 -1.06343e-19 0 0 
876.001 -1.21982e-13 0 0 0 0 0 -4.86221e-11 -1.26862e-11 -1.26862e-11 0 -8.66736e-28 0 -1.06857e-19 0 0 
880.183 -1.21982e-13 0 0 0 0 0 -4.86221e-11 -1.26862e-11 -1.26862e-11 0 -8.66736e-28 0 -1.07367e-19 0 0 
884.338 -1.21982e-13 0 0 0 0 0 -4.86221e-11 -1.26862e-11 -1.26862e-11 0 -8.66736e-28 0 -1.07874e-19 0 0 
888.465 -1.21982e-13 0 0 0 0 0 -4.86221e-11 -1.26862e-11 -1.26862e-11 0 -8.66736e-28 0 -1.08377e-19 0 0 
892.565 -1.21982e-13 0 0 0 0 0 -4.86221e-11 -1.26862e-11 -1.26862e-11 0 -8.66736e-28 0 -1.08877e-19 0 0 
896.638 -1.21982e-13 0 0 0 0 0 -4.86221e-11 -1.26862e-11 -1.26862e-11 0 -8.66736e-28 0 -1.09374e-19 0 0 
900.684 -1.21982e-13 0 0 0 0 0 -4.86221e-11 -1.26862e-11 -1.26862e-11 0 -8.66736e-28 0 -1.09867e-19 0 0 
904.703 -1.21982e-13 0 0 0 0 0 -4.86221e-11 -1.26862e-11 -1.26862e-11 0 -8.66736e-28 0 -1.10358e-19 0 0 
908.695 -1.21982e-13 0 0 0 0 0 -4.86221e-11 -1.26862e-11 -1.26862e-11 0 -8.66736e-28 0 -1.10845e-19 0 0 
912.661 -1.21982e-13 0 0 0 0 0 -4.86221e-11 -1.26862e-11 -1.26862e-11 0 -8.66736e-28 0 -1.11328e-19 0 0 
916.601 -1.21982e-13 0 0 0 0 0 -4.86221e-11 -1.26862e-11 -1.26862e-11 0 -8.66736e-28 0 -1.11809e-19 0 0 
920.515 -1.21982e-13 0 0 0 0 0 -4.86221e-11 -1.26862e-11 -1.26862e-11 0 -8.66736e-28 0 -1.12286e-19 0 0 
924.403 -1.21982e-13 0 0 0 0 0 -4.86221e-11 -1.26862e-11 -1.26862e-11 0 -8.66736e-28 0 -1.12761e-19 0 0 
928.265 -1.21982e-13 0 0 0 0 0 -4.86221e-11 -1.26862e-11 -1.26862e-11 0 -8.66736e-28 0 -1.13232e-19 0 0 
932.101 -1.21982e-13 0 0 0 0 0 -4.86221e-11 -1.26862e-11 -1.26862e-11 0 -8.66736e-28 0 -1.137e-19 0 0 
935.913 -1.21982e-13 0 0 0 0 0 -4.86221e-11 -1.26862e-11 -1.26862e-11 0 -8.66736e-28 0 -1.14165e-19 0 0 
939.699 -1.21982e-13 0 0 0 0 0 -4.86221e-11 -1.26862e-11 -1.26862e-11 0 -8.66736e-28 0 -1.14627e-19 0 0 
943.46 -1.21982e-13 0 0 0 0 0 -4.86221e-11 -1.26862e-11 -1.26862e-11 0 -8.66736e-28 0 -1.15085e-19 0 0 
947.196 -1.21982e-13 0 0 0 0 0 -4.86221e-11 -1.26862e-11 -1.26862e-11 0 -8.66736e-28 0 -1.15541e-19 0 0 
950.907 -1.21982e-13 0 0 0 0 0 -4.86221e-11 -1.26862e-11 -1.26862e-11 0 -8.66736e-28 0 -1.15994e-19 0 0 
954.594 -1.21982e-13 0 0 0 0 0 -4.86221e-11 -1.26862e-11 -1.26862e-11 0 -8.66736e-28 0 -1.16444e-19 0 0 
958.257 -1.21982e-13 0 0 0 0 0 -4.86221e-11 -1.26862e-11 -1.26862e-11 0 -8.66736e-28 0 -1.1689e-19 0 0 
961.895 -1.21982e-13 0 0 0 0 0 -4.86221e-11 -1.26862e-11 -1.26862e-11 0 -8.66736e-28 0 -1.17334e-19 0 0 
965.509 -1.21982e-13 0 0 0 0 0 -4.86221e-11 -1.26862e-11 -1.26862e-11 0 -8.66736e-28 0 -1.17775e-19 0 0 
969.099 -1.21982e-13 0 0 0 0 0 -4.86221e-11 -1.26862e-11 -1.26862e-11 0 -8.66736e-28 0 -1.18213e-19 0 0 
972.666 -1.21982e-13 0 0 0 0 0 -4.86221e-11 -1.26862e-11 -1.26862e-11 0 -8.66736e-28 0 -1.18648e-19 0 0 
976.209 -1.21982e-13 0 0 0 0 0 -4.86221e-11 -1.26862e-11 -1.26862e-11 0 -8.66736e-28 0 -1.1908e-19 0 0 
979.728 -1.21982e-13 0 0 0 0 0 -4.86221e-11 -1.26862e-11 -1.26862e-11 0 -8.66736e-28 0 -1.19509e-19 0 0 
983.224 -1.21982e-13 0 0 0 0 0 -4.86221e-11 -1.26862e-11 -1.26862e-11 0 -8.66736e-28 0 -1.19936e-19 0 0 
986.698 -1.21982e-13 0 0 0 0 0 -4.86221e-11 -1.26862e-11 -1.26862e-11 0 -8.66736e-28 0 -1.2036e-19 0 0 
990.148 -1.21982e-13 0 0 0 0 0 -4.86221e-11 -1.26862e-11 -1.26862e-11 0 -8.66736e-28 0 -1.2078e-19 0 0 
993.575 -1.21982e-13 0 0 0 0 0 -4.86221e-11 -1.26862e-11 -1.26862e-11 0 -8.66736e-28 0 -1.21199e-19 0 0 
996.98 -1.21982e-13 0 0 0 0 0 -4.86221e-11 -1.26862e-11 -1.26862e-11 0 -8.66736e-28 0 -1.21614e-19 0 0 
1000.36 -1.21982e-13 0 0 0 0 0 -4.86221e-11 -1.26862e-11 -1.26862e-11 0 -8.66736e-28 0 -1.22026e-19 0 0 
1003.72 -1.21982e-13 0 0 0 0 0 -4.86221e-11 -1.26862e-11 -1.26862e-11 0 -8.66736e-28 0 -1.22436e-19 0 0 
1007.06 -1.21982e-13 0 0 0 0 0 -4.86221e-11 -1.26862e-11 -1.26862e-11 0 -8.66736e-28 0 -1.22843e-19 0 0 
1010.37 -1.21982e-13 0 0 0 0 0 -4.86221e-11 -1.26862e-11 -1.26862e-11 0 -8.66736e-28 0 -1.23248e-19 0 0 
1013.67 -1.21982e-13 0 0 0 0 0 -4.86221e-11 -1.26862e-11 -1.26862e-11 0 -8.66736e-28 0 -1.23649e-19 0 0 
1016.94 -1.21982e-13 0 0 0 0 0 -4.86221e-11 -1.26862e-11 -1.26862e-11 0 -8.66736e-28 0 -1.24049e-19 0 0 
1020.19 -1.21982e-13 0 0 0 0 0 -4.86221e-11 -1.26862e-11 -1.26862e-11 0 -8.66736e-28 0 -1.24445e-19 0 0 
1023.42 -1.21982e-13 0 0 0 0 0 -4.86221e-11 -1.26862e-11 -1.26862e-11 0 -8.66736e-28 0 -1.24839e-19 0 0 
1026.63 -1.21982e-13 0 0 0 0 0 -4.86221e-11 -1.26862e-11 -1.26862e-11 0 -8.66736e-28 0 -1.2523e-19 0 0 
1029.81 -1.21982e-13 0 0 0 0 0 -4.86221e-11 -1.26862e-11 -1.26862e-11 0 -8.66736e-28 0 -1.25619e-19 0 0 
1032.98 -1.21982e-13 0 0 0 0 0 -4.86221e-11 -1.26862e-11 -1.26862e-11 0 -8.66736e-28 0 -1.26005e-19 0 0 
1036.12 -1.21982e-13 0 0 0 0 0 -4.86221e-11 -1.26862e-11 -1.26862e-11 0 -8.66736e-28 0 -1.26388e-19 0 0 
1039.24 -1.21982e-13 0 0 0 0 0 -4.86221e-11 -1.26862e-11 -1.26862e-11 0 -8.66736e-28 0 -1.26769e-19 0 0 
1042.35 -1.21982e-13 0 0 0 0 0 -4.86221e-11 -1.26862e-11 -1.26862e-11 0 -8.66736e-28 0 -1.27148e-19 0 0 
1045.43 -1.21982e-13 0 0 0 0 0 -4.86221e-11 -1.26862e-11 -1.26862e-11 0 -8.66736e-28 0 -1.27524e-19 0 0 
1048.49 -1.21982e-13 0 0 0 0 0 -4.86221e-11 -1.26862e-11 -1.26862e-11 0 -8.66736e-28 0 -1.27897e-19 0 0 
1051.53 -1.21982e-13 0 0 0 0 0 -4.86221e-11 -1.26862e-11 -1.26862e-11 0 -8.66736e-28 0 -1.28268e-19 0 0 
1054.55 -1.21982e-13 0 0 0 0 0 -4.86221e-11 -1.26862e-11 -1.26862e-11 0 -8.66736e-28 0 -1.28637e-19 0 0 
1057.55 -1.21982e-13 0 0 0 0 0 -4.86221e-11 -1.26862e-11 -1.26862e-11 0 -8.66736e-28 0 -1.29003e-19 0 0 
1060.54 -1.21982e-13 0 0 0 0 0 -4.86221e-11 -1.26862e-11 -1.26862e-11 0 -8.66736e-28 0 -1.29366e-19 0 0 
1063.5 -1.21982e-13 0 0 0 0 0 -4.86221e-11 -1.26862e-11 -1.26862e-11 0 -8.66736e-28 0 -1.29728e-19 0 0 
1066.44 -1.21982e-13 0 0 0 0 0 -4.86221e-11 -1.26862e-11 -1.26862e-11 0 -8.66736e-28 0 -1.30087e-19 0 0 
1069.36 -1.21982e-13 0 0 0 0 0 -4.86221e-11 -1.26862e-11 -1.26862e-11 0 -8.66736e-28 0 -1.30443e-19 0 0 
1072.27 -1.21982e-13 0 0 0 0 0 -4.86221e-11 -1.26862e-11 -1.26862e-11 0 -8.66736e-28 0 -1.30797e-19 0 0 
1075.15 -1.21982e-13 0 0 0 0 0 -4.86221e-11 -1.26862e-11 -1.26862e-11 0 -8.66736e-28 0 -1.31149e-19 0 0 
1078.01 -1.21982e-13 0 0 0 0 0 -4.86221e-11 -1.26862e-11 -1.26862e-11 0 -8.66736e-28 0 -1.31499e-19 0 0 
1080.86 -1.21982e-13 0 0 0 0 0 -4.86221e-11 -1.26862e-11 -1.26862e-11 0 -8.66736e-28 0 -1.31846e-19 0 0 
1083.69 -1.21982e-13 0 0 0 0 0 -4.86221e-11 -1.26862e-11 -1.26862e-11 0 -8.66736e-28 0 -1.32191e-19 0 0 
1086.5 -1.21982e-13 0 0 0 0 0 -4.86221e-11 -1.26862e-11 -1.26862e-11 0 -8.66736e-28 0 -1.32533e-19 0 0 
1089.29 -1.21982e-13 0 0 0 0 0 -4.86221e-11 -1.26862e-11 -1.26862e-11 0 -8.66736e-28 0 -1.32874e-19 0 0 
1092.06 -1.21982e-13 0 0 0 0 0 -4.86221e-11 -1.26862e-11 -1.26862e-11 0 -8.66736e-28 0 -1.33212e-19 0 0 
1094.81 -1.21982e-13 0 0 0 0 0 -4.86221e-11 -1.26862e-11 -1.26862e-11 0 -8.66736e-28 0 -1.33548e-19 0 0 
1097.55 -1.21982e-13 0 0 0 0 0 -4.86221e-11 -1.26862e-11 -1.26862e-11 0 -8.66736e-28 0 -1.33881e-19 0 0 
1100.26 -1.21982e-13 0 0 0 0 0 -4.86221e-11 -1.26862e-11 -1.26862e-11 0 -8.66736e-28 0 -1.34213e-19 0 0 
1102.96 -1.21982e-13 0 0 0 0 0 -4.86221e-11 -1.26862e-11 -1.26862e-11 0 -8.66736e-28 0 -1.34542e-19 0 0 
1105.64 -1.21982e-13 0 0 0 0 0 -4.86221e-11 -1.26862e-11 -1.26862e-11 0 -8.66736e-28 0 -1.34869e-19 0 0 
1108.31 -1.21982e-13 0 0 0 0 0 -4.86221e-11 -1.26862e-11 -1.26862e-11 0 -8.66736e-28 0 -1.35194e-19 0 0 
1110.95 -1.21982e-13 0 0 0 0 0 -4.86221e-11 -1.26862e-11 -1.26862e-11 0 -8.66736e-28 0 -1.35516e-19 0 0 
1113.58 -1.21982e-13 0 0 0 0 0 -4.86221e-11 -1.26862e-11 -1.26862e-11 0 -8.66736e-28 0 -1.35837e-19 0 0 
1116.19 -1.21982e-13 0 0 0 0 0 -4.86221e-11 -1.26862e-11 -1.26862e-11 0 -8.66736e-28 0 -1.36156e-19 0 0 
1118.78 -1.21982e-13 0 0 0 0 0 -4.86221e-11 -1.26862e-11 -1.26862e-11 0 -8.66736e-28 0 -1.36472e-19 0 0 
1121.36 -1.21982e-13 0 0 0 0 0 -4.86221e-11 -1.26862e-11 -1.26862e-11 0 -8.66736e-28 0 -1.36786e-19 0 0 
1123.92 -1.21982e-13 0 0 0 0 0 -4.86221e-11 -1.26862e-11 -1.26862e-11 0 -8.66736e-28 0 -1.37098e-19 0 0 
1126.46 -1.21982e-13 0 0 0 0 0 -4.86221e-11 -1.26862e-11 -1.26862e-11 0 -8.66736e-28 0 -1.37408e-19 0 0 
1128.99 -1.21982e-13 0 0 0 0 0 -4.86221e-11 -1.26862e-11 -1.26862e-11 0 -8.66736e-28 0 -1.37717e-19 0 0 
1131.5 -1.21982e-13 0 0 0 0 0 -4.86221e-11 -1.26862e-11 -1.26862e-11 0 -8.66736e-28 0 -1.38023e-19 0 0 
1133.99 -1.21982e-13 0 0 0 0 0 -4.86221e-11 -1.26862e-11 -1.26862e-11 0 -8.66736e-28 0 -1.38327e-19 0 0 
1136.47 -1.21982e-13 0 0 0 0 0 -4.86221e-11 -1.26862e-11 -1.26862e-11 0 -8.66736e-28 0 -1.38629e-19 0 0 
1138.93 -1.21982e-13 0 0 0 0 0 -4.86221e-11 -1.26862e-11 -1.26862e-11 0 -8.66736e-28 0 -1.38929e-19 0 0 
1141.37 -1.21982e-13 0 0 0 0 0 -4.86221e-11 -1.26862e-11 -1.26862e-11 0 -8.66736e-28 0 -1.39227e-19 0 0 
1143.8 -1.21982e-13 0 0 0 0 0 -4.86221e-11 -1.26862e-11 -1.26862e-11 0 -8.66736e-28 0 -1.39523e-19 0 0 
1146.21 -1.21982e-13 0 0 0 0 0 -4.86221e-11 -1.26862e-11 -1.26862e-11 0 -8.66736e-28 0 -1.39817e-19 0 0 
1148.6 -1.21982e-13 0 0 0 0 0 -4.86221e-11 -1.26862e-11 -1.26862e-11 0 -8.66736e-28 0 -1.40109e-19 0 0 
1150.98 -1.21982e-13 0 0 0 0 0 -4.86221e-11 -1.26862e-11 -1.26862e-11 0 -8.66736e-28 0 -1.40399e-19 0 0 
1153.34 -1.21982e-13 0 0 0 0 0 -4.86221e-11 -1.26862e-11 -1.26862e-11 0 -8.66736e-28 0 -1.40688e-19 0 0 
1155.69 -1.21982e-13 0 0 0 0 0 -4.86221e-11 -1.26862e-11 -1.26862e-11 0 -8.66736e-28 0 -1.40974e-19 0 0 
1158.02 -1.21982e-13 0 0 0 0 0 -4.86221e-11 -1.26862e-11 -1.26862e-11 0 -8.66736e-28 0 -1.41258e-19 0 0 
1160.34 -1.21982e-13 0 0 0 0 0 -4.86221e-11 -1.26862e-11 -1.26862e-11 0 -8.66736e-28 0 -1.41541e-19 0 0 
1162.64 -1.21982e-13 0 0 0 0 0 -4.86221e-11 -1.26862e-11 -1.26862e-11 0 -8.66736e-28 0 -1.41822e-19 0 0 
1164.93 -1.21982e-13 0 0 0 0 0 -4.86221e-11 -1.26862e-11 -1.26862e-11 0 -8.66736e-28 0 -1.42101e-19 0 0 
1167.2 -1.21982e-13 0 0 0 0 0 -4.86221e-11 -1.26862e-11 -1.26862e-11 0 -8.66736e-28 0 -1.42378e-19 0 0 
1169.46 -1.21982e-13 0 0 0 0 0 -4.86221e-11 -1.26862e-11 -1.26862e-11 0 -8.66736e-28 0 -1.42653e-19 0 0 
1171.7 -1.21982e-13 0 0 0 0 0 -4.86221e-11 -1.26862e-11 -1.26862e-11 0 -8.66736e-28 0 -1.42926e-19 0 0 
1173.92 -1.21982e-13 0 0 0 0 0 -4.86221e-11 -1.26862e-11 -1.26862e-11 0 -8.66736e-28 0 -1.43198e-19 0 0 
1176.14 -1.21982e-13 0 0 0 0 0 -4.86221e-11 -1.26862e-11 -1.26862e-11 0 -8.66736e-28 0 -1.43468e-19 0 0 
1178.33 -1.21982e-13 0 0 0 0 0 -4.86221e-11 -1.26862e-11 -1.26862e-11 0 -8.66736e-28 0 -1.43736e-19 0 0 
1180.52 -1.21982e-13 0 0 0 0 0 -4.86221e-11 -1.26862e-11 -1.26862e-11 0 -8.66736e-28 0 -1.44002e-19 0 0 
1182.68 -1.21982e-13 0 0 0 0 0 -4.86221e-11 -1.26862e-11 -1.26862e-11 0 -8.66736e-28 0 -1.44266e-19 0 0 
1184.84 -1.21982e-13 0 0 0 0 0 -4.86221e-11 -1.26862e-11 -1.26862e-11 0 -8.66736e-28 0 -1.44529e-19 0 0 
1186.98 -1.21982e-13 0 0 0 0 0 -4.86221e-11 -1.26862e-11 -1.26862e-11 0 -8.66736e-28 0 -1.4479e-19 0 0 
1189.1 -1.21982e-13 0 0 0 0 0 -4.86221e-11 -1.26862e-11 -1.26862e-11 0 -8.66736e-28 0 -1.45049e-19 0 0 
1191.21 -1.21982e-13 0 0 0 0 0 -4.86221e-11 -1.26862e-11 -1.26862e-11 0 -8.66736e-28 0 -1.45307e-19 0 0 
1193.31 -1.21982e-13 0 0 0 0 0 -4.86221e-11 -1.26862e-11 -1.26862e-11 0 -8.66736e-28 0 -1.45563e-19 0 0 
1195.39 -1.21982e-13 0 0 0 0 0 -4.86221e-11 -1.26862e-11 -1.26862e-11 0 -8.66736e-28 0 -1.45817e-19 0 0 
1197.46 -1.21982e-13 0 0 0 0 0 -4.86221e-11 -1.26862e-11 -1.26862e-11 0 -8.66736e-28 0 -1.46069e-19 0 0 
1199.52 -1.21982e-13 0 0 0 0 0 -4.86221e-11 -1.26862e-11 -1.26862e-11 0 -8.66736e-28 0 -1.4632e-19 0 0 
1201.56 -1.21982e-13 0 0 0 0 0 -4.86221e-11 -1.26862e-11 -1.26862e-11 0 -8.66736e-28 0 -1.46569e-19 0 0 
1203.59 -1.21982e-13 0 0 0 0 0 -4.86221e-11 -1.26862e-11 -1.26862e-11 0 -8.66736e-28 0 -1.46817e-19 0 0 
1205.61 -1.21982e-13 0 0 0 0 0 -4.86221e-11 -1.26862e-11 -1.26862e-11 0 -8.66736e-28 0 -1.47063e-19 0 0 
1207.61 -1.21982e-13 0 0 0 0 0 -4.86221e-11 -1.26862e-11 -1.26862e-11 0 -8.66736e-28 0 -1.47307e-19 0 0 
1209.6 -1.21982e-13 0 0 0 0 0 -4.86221e-11 -1.26862e-11 -1.26862e-11 0 -8.66736e-28 0 -1.47549e-19 0 0 
1211.57 -1.21982e-13 0 0 0 0 0 -4.86221e-11 -1.26862e-11 -1.26862e-11 0 -8.66736e-28 0 -1.4779e-19 0 0 
1213.54 -1.21982e-13 0 0 0 0 0 -4.86221e-11 -1.26862e-11 -1.26862e-11 0 -8.66736e-28 0 -1.4803e-19 0 0 
1215.49 -1.21982e-13 0 0 0 0 0 -4.86221e-11 -1.26862e-11 -1.26862e-11 0 -8.66736e-28 0 -1.48268e-19 0 0 
1217.42 -1.21982e-13 0 0 0 0 0 -4.86221e-11 -1.26862e-11 -1.26862e-11 0 -8.66736e-28 0 -1.48504e-19 0 0 
1219.35 -1.21982e-13 0 0 0 0 0 -4.86221e-11 -1.26862e-11 -1.26862e-11 0 -8.66736e-28 0 -1.48739e-19 0 0 
1221.26 -1.21982e-13 0 0 0 0 0 -4.86221e-11 -1.26862e-11 -1.26862e-11 0 -8.66736e-28 0 -1.48972e-19 0 0 
1223.16 -1.21982e-13 0 0 0 0 0 -4.86221e-11 -1.26862e-11 -1.26862e-11 0 -8.66736e-28 0 -1.49203e-19 0 0 
1225.04 -1.21982e-13 0 0 0 0 0 -4.86221e-11 -1.26862e-11 -1.26862e-11 0 -8.66736e-28 0 -1.49433e-19 0 0 
1226.92 -1.21982e-13 0 0 0 0 0 -4.86221e-11 -1.26862e-11 -1.26862e-11 0 -8.66736e-28 0 -1.49662e-19 0 0 
1228.78 -1.21982e-13 0 0 0 0 0 -4.86221e-11 -1.26862e-11 -1.26862e-11 0 -8.66736e-28 0 -1.49889e-19 0 0 
1230.63 -1.21982e-13 0 0 0 0 0 -4.86221e-11 -1.26862e-11 -1.26862e-11 0 -8.66736e-28 0 -1.50115e-19 0 0 
1232.46 -1.21982e-13 0 0 0 0 0 -4.86221e-11 -1.26862e-11 -1.26862e-11 0 -8.66736e-28 0 -1.50339e-19 0 0 
1234.29 -1.21982e-13 0 0 0 0 0 -4.86221e-11 -1.26862e-11 -1.26862e-11 0 -8.66736e-28 0 -1.50561e-19 0 0 
1236.1 -1.21982e-13 0 0 0 0 0 -4.86221e-11 -1.26862e-11 -1.26862e-11 0 -8.66736e-28 0 -1.50782e-19 0 0 
1237.9 -1.21982e-13 0 0 0 0 0 -4.86221e-11 -1.26862e-11 -1.26862e-11 0 -8.66736e-28 0 -1.51002e-19 0 0 
1239.69 -1.21982e-13 0 0 0 0 0 -4.86221e-11 -1.26862e-11 -1.26862e-11 0 -8.66736e-28 0 -1.5122e-19 0 0 
1241.47 -1.21982e-13 0 0 0 0 0 -4.86221e-11 -1.26862e-11 -1.26862e-11 0 -8.66736e-28 0 -1.51437e-19 0 0 
1243.23 -1.21982e-13 0 0 0 0 0 -4.86221e-11 -1.26862e-11 -1.26862e-11 0 -8.66736e-28 0 -1.51652e-19 0 0 
1244.98 -1.21982e-13 0 0 0 0 0 -4.86221e-11 -1.26862e-11 -1.26862e-11 0 -8.66736e-28 0 -1.51866e-19 0 0 
1246.73 -1.21982e-13 0 0 0 0 0 -4.86221e-11 -1.26862e-11 -1.26862e-11 0 -8.66736e-28 0 -1.52078e-19 0 0 
1248.46 -1.21982e-13 0 0 0 0 0 -4.86221e-11 -1.26862e-11 -1.26862e-11 0 -8.66736e-28 0 -1.52289e-19 0 0 
1250.17 -1.21982e-13 0 0 0 0 0 -4.86221e-11 -1.26862e-11 -1.26862e-11 0 -8.66736e-28 0 -1.52499e-19 0 0 
1251.88 -1.21982e-13 0 0 0 0 0 -4.86221e-11 -1.26862e-11 -1.26862e-11 0 -8.66736e-28 0 -1.52707e-19 0 0 
1253.58 -1.21982e-13 0 0 0 0 0 -4.86221e-11 -1.26862e-11 -1.26862e-11 0 -8.66736e-28 0 -1.52914e-19 0 0 
1255.26 -1.21982e-13 0 0 0 0 0 -4.86221e-11 -1.26862e-11 -1.26862e-11 0 -8.66736e-28 0 -1.5312e-19 0 0 
1256.94 -1.21982e-13 0 0 0 0 0 -4.86221e-11 -1.26862e-11 -1.26862e-11 0 -8.66736e-28 0 -1.53324e-19 0 0 
1258.6 -1.21982e-13 0 0 0 0 0 -4.86221e-11 -1.26862e-11 -1.26862e-11 0 -8.66736e-28 0 -1.53527e-19 0 0 
1260.25 -1.21982e-13 0 0 0 0 0 -4.86221e-11 -1.26862e-11 -1.26862e-11 0 -8.66736e-28 0 -1.53728e-19 0 0 
1261.89 -1.21982e-13 0 0 0 0 0 -4.86221e-11 -1.26862e-11 -1.26862e-11 0 -8.66736e-28 0 -1.53928e-19 0 0 
1263.52 -1.21982e-13 0 0 0 0 0 -4.86221e-11 -1.26862e-11 -1.26862e-11 0 -8.66736e-28 0 -1.54127e-19 0 0 
1265.14 -1.21982e-13 0 0 0 0 0 -4.86221e-11 -1.26862e-11 -1.26862e-11 0 -8.66736e-28 0 -1.54325e-19 0 0 
1266.75 -1.21982e-13 0 0 0 0 0 -4.86221e-11 -1.26862e-11 -1.26862e-11 0 -8.66736e-28 0 -1.54521e-19 0 0 
1268.35 -1.21982e-13 0 0 0 0 0 -4.86221e-11 -1.26862e-11 -1.26862e-11 0 -8.66736e-28 0 -1.54716e-19 0 0 
1269.93 -1.21982e-13 0 0 0 0 0 -4.86221e-11 -1.26862e-11 -1.26862e-11 0 -8.66736e-28 0 -1.54909e-19 0 0 
1271.51 -1.21982e-13 0 0 0 0 0 -4.86221e-11 -1.26862e-11 -1.26862e-11 0 -8.66736e-28 0 -1.55102e-19 0 0 
1273.08 -1.21982e-13 0 0 0 0 0 -4.86221e-11 -1.26862e-11 -1.26862e-11 0 -8.66736e-28 0 -1.55293e-19 0 0 
1274.63 -1.21982e-13 0 0 0 0 0 -4.86221e-11 -1.26862e-11 -1.26862e-11 0 -8.66736e-28 0 -1.55482e-19 0 0 
1276.18 -1.21982e-13 0 0 0 0 0 -4.86221e-11 -1.26862e-11 -1.26862e-11 0 -8.66736e-28 0 -1.55671e-19 0 0 
1277.71 -1.21982e-13 0 0 0 0 0 -4.86221e-11 -1.26862e-11 -1.26862e-11 0 -8.66736e-28 0 -1.55858e-19 0 0 
1279.24 -1.21982e-13 0 0 0 0 0 -4.86221e-11 -1.26862e-11 -1.26862e-11 0 -8.66736e-28 0 -1.56044e-19 0 0 
1280.75 -1.21982e-13 0 0 0 0 0 -4.86221e-11 -1.26862e-11 -1.26862e-11 0 -8.66736e-28 0 -1.56229e-19 0 0 
1282.26 -1.21982e-13 0 0 0 0 0 -4.86221e-11 -1.26862e-11 -1.26862e-11 0 -8.66736e-28 0 -1.56413e-19 0 0 
1283.75 -1.21982e-13 0 0 0 0 0 -4.86221e-11 -1.26862e-11 -1.26862e-11 0 -8.66736e-28 0 -1.56595e-19 0 0 
1285.24 -1.21982e-13 0 0 0 0 0 -4.86221e-11 -1.26862e-11 -1.26862e-11 0 -8.66736e-28 0 -1.56776e-19 0 0 
1286.71 -1.21982e-13 0 0 0 0 0 -4.86221e-11 -1.26862e-11 -1.26862e-11 0 -8.66736e-28 0 -1.56956e-19 0 0 
1288.18 -1.21982e-13 0 0 0 0 0 -4.86221e-11 -1.26862e-11 -1.26862e-11 0 -8.66736e-28 0 -1.57135e-19 0 0 
1289.64 -1.21982e-13 0 0 0 0 0 -4.86221e-11 -1.26862e-11 -1.26862e-11 0 -8.66736e-28 0 -1.57313e-19 0 0 
1291.08 -1.21982e-13 0 0 0 0 0 -4.86221e-11 -1.26862e-11 -1.26862e-11 0 -8.66736e-28 0 -1.57489e-19 0 0 
1292.52 -1.21982e-13 0 0 0 0 0 -4.86221e-11 -1.26862e-11 -1.26862e-11 0 -8.66736e-28 0 -1.57664e-19 0 0 
1293.95 -1.21982e-13 0 0 0 0 0 -4.86221e-11 -1.26862e-11 -1.26862e-11 0 -8.66736e-28 0 -1.57838e-19 0 0 
1295.36 -1.21982e-13 0 0 0 0 0 -4.86221e-11 -1.26862e-11 -1.26862e-11 0 -8.66736e-28 0 -1.58011e-19 0 0 
1296.77 -1.21982e-13 0 0 0 0 0 -4.86221e-11 -1.26862e-11 -1.26862e-11 0 -8.66736e-28 0 -1.58183e-19 0 0 
1298.17 -1.21982e-13 0 0 0 0 0 -4.86221e-11 -1.26862e-11 -1.26862e-11 0 -8.66736e-28 0 -1.58354e-19 0 0 
1299.56 -1.21982e-13 0 0 0 0 0 -4.86221e-11 -1.26862e-11 -1.26862e-11 0 -8.66736e-28 0 -1.58523e-19 0 0 
1300.94 -1.21982e-13 0 0 0 0 0 -4.86221e-11 -1.26862e-11 -1.26862e-11 0 -8.66736e-28 0 -1.58692e-19 0 0 
1302.31 -1.21982e-13 0 0 0 0 0 -4.86221e-11 -1.26862e-11 -1.26862e-11 0 -8.66736e-28 0 -1.58859e-19 0 0 
1303.68 -1.21982e-13 0 0 0 0 0 -4.86221e-11 -1.26862e-11 -1.26862e-11 0 -8.66736e-28 0 -1.59025e-19 0 0 
1305.03 -1.21982e-13 0 0 0 0 0 -4.86221e-11 -1.26862e-11 -1.26862e-11 0 -8.66736e-28 0 -1.5919e-19 0 0 
1306.37 -1.21982e-13 0 0 0 0 0 -4.86221e-11 -1.26862e-11 -1.26862e-11 0 -8.66736e-28 0 -1.59354e-19 0 0 
1307.71 -1.21982e-13 0 0 0 0 0 -4.86221e-11 -1.26862e-11 -1.26862e-11 0 -8.66736e-28 0 -1.59517e-19 0 0 
1309.04 -1.21982e-13 0 0 0 0 0 -4.86221e-11 -1.26862e-11 -1.26862e-11 0 -8.66736e-28 0 -1.59679e-19 0 0 
1310.35 -1.21982e-13 0 0 0 0 0 -4.86221e-11 -1.26862e-11 -1.26862e-11 0 -8.66736e-28 0 -1.5984e-19 0 0 
1311.66 -1.21982e-13 0 0 0 0 0 -4.86221e-11 -1.26862e-11 -1.26862e-11 0 -8.66736e-28 0 -1.6e-19 0 0 
1312.96 -1.21982e-13 0 0 0 0 0 -4.86221e-11 -1.26862e-11 -1.26862e-11 0 -8.66736e-28 0 -1.60158e-19 0 0 
1314.26 -1.21982e-13 0 0 0 0 0 -4.86221e-11 -1.26862e-11 -1.26862e-11 0 -8.66736e-28 0 -1.60316e-19 0 0 
1315.54 -1.21982e-13 0 0 0 0 0 -4.86221e-11 -1.26862e-11 -1.26862e-11 0 -8.66736e-28 0 -1.60473e-19 0 0 
1316.81 -1.21982e-13 0 0 0 0 0 -4.86221e-11 -1.26862e-11 -1.26862e-11 0 -8.66736e-28 0 -1.60628e-19 0 0 
1318.08 -1.21982e-13 0 0 0 0 0 -4.86221e-11 -1.26862e-11 -1.26862e-11 0 -8.66736e-28 0 -1.60783e-19 0 0 
1319.34 -1.21982e-13 0 0 0 0 0 -4.86221e-11 -1.26862e-11 -1.26862e-11 0 -8.66736e-28 0 -1.60936e-19 0 0 
1320.59 -1.21982e-13 0 0 0 0 0 -4.86221e-11 -1.26862e-11 -1.26862e-11 0 -8.66736e-28 0 -1.61088e-19 0 0 
1321.83 -1.21982e-13 0 0 0 0 0 -4.86221e-11 -1.26862e-11 -1.26862e-11 0 -8.66736e-28 0 -1.6124e-19 0 0 
1323.06 -1.21982e-13 0 0 0 0 0 -4.86221e-11 -1.26862e-11 -1.26862e-11 0 -8.66736e-28 0 -1.6139e-19 0 0 
1324.29 -1.21982e-13 0 0 0 0 0 -4.86221e-11 -1.26862e-11 -1.26862e-11 0 -8.66736e-28 0 -1.6154e-19 0 0 
1325.51 -1.21982e-13 0 0 0 0 0 -4.86221e-11 -1.26862e-11 -1.26862e-11 0 -8.66736e-28 0 -1.61688e-19 0 0 
1326.72 -1.21982e-13 0 0 0 0 0 -4.86221e-11 -1.26862e-11 -1.26862e-11 0 -8.66736e-28 0 -1.61836e-19 0 0 
1327.92 -1.21982e-13 0 0 0 0 0 -4.86221e-11 -1.26862e-11 -1.26862e-11 0 -8.66736e-28 0 -1.61982e-19 0 0 
1329.11 -1.21982e-13 0 0 0 0 0 -4.86221e-11 -1.26862e-11 -1.26862e-11 0 -8.66736e-28 0 -1.62128e-19 0 0 
1330.3 -1.21982e-13 0 0 0 0 0 -4.86221e-11 -1.26862e-11 -1.26862e-11 0 -8.66736e-28 0 -1.62272e-19 0 0 
1331.47 -1.21982e-13 0 0 0 0 0 -4.86221e-11 -1.26862e-11 -1.26862e-11 0 -8.66736e-28 0 -1.62416e-19 0 0 
1332.64 -1.21982e-13 0 0 0 0 0 -4.86221e-11 -1.26862e-11 -1.26862e-11 0 -8.66736e-28 0 -1.62559e-19 0 0 
1333.8 -1.21982e-13 0 0 0 0 0 -4.86221e-11 -1.26862e-11 -1.26862e-11 0 -8.66736e-28 0 -1.627e-19 0 0 
1334.96 -1.21982e-13 0 0 0 0 0 -4.86221e-11 -1.26862e-11 -1.26862e-11 0 -8.66736e-28 0 -1.62841e-19 0 0 
1336.1 -1.21982e-13 0 0 0 0 0 -4.86221e-11 -1.26862e-11 -1.26862e-11 0 -8.66736e-28 0 -1.62981e-19 0 0 
1337.24 -1.21982e-13 0 0 0 0 0 -4.86221e-11 -1.26862e-11 -1.26862e-11 0 -8.66736e-28 0 -1.6312e-19 0 0 
1338.38 -1.21982e-13 0 0 0 0 0 -4.86221e-11 -1.26862e-11 -1.26862e-11 0 -8.66736e-28 0 -1.63258e-19 0 0 
1339.5 -1.21982e-13 0 0 0 0 0 -4.86221e-11 -1.26862e-11 -1.26862e-11 0 -8.66736e-28 0 -1.63395e-19 0 0 
1340.62 -1.21982e-13 0 0 0 0 0 -4.86221e-11 -1.26862e-11 -1.26862e-11 0 -8.66736e-28 0 -1.63531e-19 0 0 
1341.72 -1.21982e-13 0 0 0 0 0 -4.86221e-11 -1.26862e-11 -1.26862e-11 0 -8.66736e-28 0 -1.63667e-19 0 0 
1342.83 -1.21982e-13 0 0 0 0 0 -4.86221e-11 -1.26862e-11 -1.26862e-11 0 -8.66736e-28 0 -1.63801e-19 0 0 
1343.92 -1.21982e-13 0 0 0 0 0 -4.86221e-11 -1.26862e-11 -1.26862e-11 0 -8.66736e-28 0 -1.63934e-19 0 0 
1345.01 -1.21982e-13 0 0 0 0 0 -4.86221e-11 -1.26862e-11 -1.26862e-11 0 -8.66736e-28 0 -1.64067e-19 0 0 
1346.09 -1.21982e-13 0 0 0 0 0 -4.86221e-11 -1.26862e-11 -1.26862e-11 0 -8.66736e-28 0 -1.64199e-19 0 0 
1347.16 -1.21982e-13 0 0 0 0 0 -4.86221e-11 -1.26862e-11 -1.26862e-11 0 -8.66736e-28 0 -1.6433e-19 0 0 
1348.23 -1.21982e-13 0 0 0 0 0 -4.86221e-11 -1.26862e-11 -1.26862e-11 0 -8.66736e-28 0 -1.6446e-19 0 0 
1349.29 -1.21982e-13 0 0 0 0 0 -4.86221e-11 -1.26862e-11 -1.26862e-11 0 -8.66736e-28 0 -1.64589e-19 0 0 
1350.34 -1.21982e-13 0 0 0 0 0 -4.86221e-11 -1.26862e-11 -1.26862e-11 0 -8.66736e-28 0 -1.64717e-19 0 0 
1351.38 -1.21982e-13 0 0 0 0 0 -4.86221e-11 -1.26862e-11 -1.26862e-11 0 -8.66736e-28 0 -1.64845e-19 0 0 
1352.42 -1.21982e-13 0 0 0 0 0 -4.86221e-11 -1.26862e-11 -1.26862e-11 0 -8.66736e-28 0 -1.64971e-19 0 0 
1353.45 -1.21982e-13 0 0 0 0 0 -4.86221e-11 -1.26862e-11 -1.26862e-11 0 -8.66736e-28 0 -1.65097e-19 0 0 
1354.48 -1.21982e-13 0 0 0 0 0 -4.86221e-11 -1.26862e-11 -1.26862e-11 0 -8.66736e-28 0 -1.65222e-19 0 0 
1355.49 -1.21982e-13 0 0 0 0 0 -4.86221e-11 -1.26862e-11 -1.26862e-11 0 -8.66736e-28 0 -1.65346e-19 0 0 
1356.5 -1.21982e-13 0 0 0 0 0 -4.86221e-11 -1.26862e-11 -1.26862e-11 0 -8.66736e-28 0 -1.65469e-19 0 0 
1357.51 -1.21982e-13 0 0 0 0 0 -4.86221e-11 -1.26862e-11 -1.26862e-11 0 -8.66736e-28 0 -1.65592e-19 0 0 
1358.51 -1.21982e-13 0 0 0 0 0 -4.86221e-11 -1.26862e-11 -1.26862e-11 0 -8.66736e-28 0 -1.65714e-19 0 0 
1359.5 -1.21982e-13 0 0 0 0 0 -4.86221e-11 -1.26862e-11 -1.26862e-11 0 -8.66736e-28 0 -1.65834e-19 0 0 
1360.48 -1.21982e-13 0 0 0 0 0 -4.86221e-11 -1.26862e-11 -1.26862e-11 0 -8.66736e-28 0 -1.65954e-19 0 0 
1361.46 -1.21982e-13 0 0 0 0 0 -4.86221e-11 -1.26862e-11 -1.26862e-11 0 -8.66736e-28 0 -1.66074e-19 0 0 
1362.43 -1.21982e-13 0 0 0 0 0 -4.86221e-11 -1.26862e-11 -1.26862e-11 0 -8.66736e-28 0 -1.66192e-19 0 0 
1363.39 -1.21982e-13 0 0 0 0 0 -4.86221e-11 -1.26862e-11 -1.26862e-11 0 -8.66736e-28 0 -1.6631e-19 0 0 
1364.35 -1.21982e-13 0 0 0 0 0 -4.86221e-11 -1.26862e-11 -1.26862e-11 0 -8.66736e-28 0 -1.66427e-19 0 0 
1365.3 -1.21982e-13 0 0 0 0 0 -4.86221e-11 -1.26862e-11 -1.26862e-11 0 -8.66736e-28 0 -1.66543e-19 0 0 
1366.25 -1.21982e-13 0 0 0 0 0 -4.86221e-11 -1.26862e-11 -1.26862e-11 0 -8.66736e-28 0 -1.66658e-19 0 0 
1367.19 -1.21982e-13 0 0 0 0 0 -4.86221e-11 -1.26862e-11 -1.26862e-11 0 -8.66736e-28 0 -1.66773e-19 0 0 
1368.12 -1.21982e-13 0 0 0 0 0 -4.86221e-11 -1.26862e-11 -1.26862e-11 0 -8.66736e-28 0 -1.66887e-19 0 0 
1369.05 -1.21982e-13 0 0 0 0 0 -4.86221e-11 -1.26862e-11 -1.26862e-11 0 -8.66736e-28 0 -1.67e-19 0 0 
1369.97 -1.21982e-13 0 0 0 0 0 -4.86221e-11 -1.26862e-11 -1.26862e-11 0 -8.66736e-28 0 -1.67112e-19 0 0 
1370.89 -1.21982e-13 0 0 0 0 0 -4.86221e-11 -1.26862e-11 -1.26862e-11 0 -8.66736e-28 0 -1.67224e-19 0 0 
1371.8 -1.21982e-13 0 0 0 0 0 -4.86221e-11 -1.26862e-11 -1.26862e-11 0 -8.66736e-28 0 -1.67335e-19 0 0 
1372.7 -1.21982e-13 0 0 0 0 0 -4.86221e-11 -1.26862e-11 -1.26862e-11 0 -8.66736e-28 0 -1.67445e-19 0 0 
1373.6 -1.21982e-13 0 0 0 0 0 -4.86221e-11 -1.26862e-11 -1.26862e-11 0 -8.66736e-28 0 -1.67554e-19 0 0 
1374.49 -1.21982e-13 0 0 0 0 0 -4.86221e-11 -1.26862e-11 -1.26862e-11 0 -8.66736e-28 0 -1.67663e-19 0 0 
1375.37 -1.21982e-13 0 0 0 0 0 -4.86221e-11 -1.26862e-11 -1.26862e-11 0 -8.66736e-28 0 -1.67771e-19 0 0 
1376.25 -1.21982e-13 0 0 0 0 0 -4.86221e-11 -1.26862e-11 -1.26862e-11 0 -8.66736e-28 0 -1.67878e-19 0 0 
1377.12 -1.21982e-13 0 0 0 0 0 -4.86221e-11 -1.26862e-11 -1.26862e-11 0 -8.66736e-28 0 -1.67985e-19 0 0 
1377.99 -1.21982e-13 0 0 0 0 0 -4.86221e-11 -1.26862e-11 -1.26862e-11 0 -8.66736e-28 0 -1.6809e-19 0 0 
1378.85 -1.21982e-13 0 0 0 0 0 -4.86221e-11 -1.26862e-11 -1.26862e-11 0 -8.66736e-28 0 -1.68196e-19 0 0 
1379.71 -1.21982e-13 0 0 0 0 0 -4.86221e-11 -1.26862e-11 -1.26862e-11 0 -8.66736e-28 0 -1.683e-19 0 0 
1380.56 -1.21982e-13 0 0 0 0 0 -4.86221e-11 -1.26862e-11 -1.26862e-11 0 -8.66736e-28 0 -1.68404e-19 0 0 
1381.41 -1.21982e-13 0 0 0 0 0 -4.86221e-11 -1.26862e-11 -1.26862e-11 0 -8.66736e-28 0 -1.68507e-19 0 0 
1382.24 -1.21982e-13 0 0 0 0 0 -4.86221e-11 -1.26862e-11 -1.26862e-11 0 -8.66736e-28 0 -1.68609e-19 0 0 
1383.08 -1.21982e-13 0 0 0 0 0 -4.86221e-11 -1.26862e-11 -1.26862e-11 0 -8.66736e-28 0 -1.68711e-19 0 0 
1383.91 -1.21982e-13 0 0 0 0 0 -4.86221e-11 -1.26862e-11 -1.26862e-11 0 -8.66736e-28 0 -1.68812e-19 0 0 
1384.73 -1.21982e-13 0 0 0 0 0 -4.86221e-11 -1.26862e-11 -1.26862e-11 0 -8.66736e-28 0 -1.68912e-19 0 0 
1385.55 -1.21982e-13 0 0 0 0 0 -4.86221e-11 -1.26862e-11 -1.26862e-11 0 -8.66736e-28 0 -1.69012e-19 0 0 
1386.36 -1.21982e-13 0 0 0 0 0 -4.86221e-11 -1.26862e-11 -1.26862e-11 0 -8.66736e-28 0 -1.69111e-19 0 0 
1387.16 -1.21982e-13 0 0 0 0 0 -4.86221e-11 -1.26862e-11 -1.26862e-11 0 -8.66736e-28 0 -1.69209e-19 0 0 
1387.97 -1.21982e-13 0 0 0 0 0 -4.86221e-11 -1.26862e-11 -1.26862e-11 0 -8.66736e-28 0 -1.69307e-19 0 0 
1388.76 -1.21982e-13 0 0 0 0 0 -4.86221e-11 -1.26862e-11 -1.26862e-11 0 -8.66736e-28 0 -1.69404e-19 0 0 
1389.55 -1.21982e-13 0 0 0 0 0 -4.86221e-11 -1.26862e-11 -1.26862e-11 0 -8.66736e-28 0 -1.69501e-19 0 0 
1390.34 -1.21982e-13 0 0 0 0 0 -4.86221e-11 -1.26862e-11 -1.26862e-11 0 -8.66736e-28 0 -1.69597e-19 0 0 
1391.12 -1.21982e-13 0 0 0 0 0 -4.86221e-11 -1.26862e-11 -1.26862e-11 0 -8.66736e-28 0 -1.69692e-19 0 0 
1391.89 -1.21982e-13 0 0 0 0 0 -4.86221e-11 -1.26862e-11 -1.26862e-11 0 -8.66736e-28 0 -1.69786e-19 0 0 
1392.66 -1.21982e-13 0 0 0 0 0 -4.86221e-11 -1.26862e-11 -1.26862e-11 0 -8.66736e-28 0 -1.6988e-19 0 0 
1393.43 -1.21982e-13 0 0 0 0 0 -4.86221e-11 -1.26862e-11 -1.26862e-11 0 -8.66736e-28 0 -1.69974e-19 0 0 
1394.19 -1.21982e-13 0 0 0 0 0 -4.86221e-11 -1.26862e-11 -1.26862e-11 0 -8.66736e-28 0 -1.70066e-19 0 0 
1394.94 -1.21982e-13 0 0 0 0 0 -4.86221e-11 -1.26862e-11 -1.26862e-11 0 -8.66736e-28 0 -1.70158e-19 0 0 
1395.69 -1.21982e-13 0 0 0 0 0 -4.86221e-11 -1.26862e-11 -1.26862e-11 0 -8.66736e-28 0 -1.7025e-19 0 0 
1396.44 -1.21982e-13 0 0 0 0 0 -4.86221e-11 -1.26862e-11 -1.26862e-11 0 -8.66736e-28 0 -1.70341e-19 0 0 
1397.18 -1.21982e-13 0 0 0 0 0 -4.86221e-11 -1.26862e-11 -1.26862e-11 0 -8.66736e-28 0 -1.70431e-19 0 0 
1397.91 -1.21982e-13 0 0 0 0 0 -4.86221e-11 -1.26862e-11 -1.26862e-11 0 -8.66736e-28 0 -1.7052e-19 0 0 
1398.64 -1.21982e-13 0 0 0 0 0 -4.86221e-11 -1.26862e-11 -1.26862e-11 0 -8.66736e-28 0 -1.7061e-19 0 0 
1399.37 -1.21982e-13 0 0 0 0 0 -4.86221e-11 -1.26862e-11 -1.26862e-11 0 -8.66736e-28 0 -1.70698e-19 0 0 
1400.09 -1.21982e-13 0 0 0 0 0 -4.86221e-11 -1.26862e-11 -1.26862e-11 0 -8.66736e-28 0 -1.70786e-19 0 0 
1400.8 -1.21982e-13 0 0 0 0 0 -4.86221e-11 -1.26862e-11 -1.26862e-11 0 -8.66736e-28 0 -1.70873e-19 0 0 
1401.51 -1.21982e-13 0 0 0 0 0 -4.86221e-11 -1.26862e-11 -1.26862e-11 0 -8.66736e-28 0 -1.7096e-19 0 0 
1402.22 -1.21982e-13 0 0 0 0 0 -4.86221e-11 -1.26862e-11 -1.26862e-11 0 -8.66736e-28 0 -1.71046e-19 0 0 
1402.92 -1.21982e-13 0 0 0 0 0 -4.86221e-11 -1.26862e-11 -1.26862e-11 0 -8.66736e-28 0 -1.71132e-19 0 0 
1403.62 -1.21982e-13 0 0 0 0 0 -4.86221e-11 -1.26862e-11 -1.26862e-11 0 -8.66736e-28 0 -1.71217e-19 0 0 
1404.31 -1.21982e-13 0 0 0 0 0 -4.86221e-11 -1.26862e-11 -1.26862e-11 0 -8.66736e-28 0 -1.71301e-19 0 0 
1405 -1.21982e-13 0 0 0 0 0 -4.86221e-11 -1.26862e-11 -1.26862e-11 0 -8.66736e-28 0 -1.71385e-19 0 0 
1405.68 -1.21982e-13 0 0 0 0 0 -4.86221e-11 -1.26862e-11 -1.26862e-11 0 -8.66736e-28 0 -1.71468e-19 0 0 
1406.36 -1.21982e-13 0 0 0 0 0 -4.86221e-11 -1.26862e-11 -1.26862e-11 0 -8.66736e-28 0 -1.71551e-19 0 0 
1407.04 -1.21982e-13 0 0 0 0 0 -4.86221e-11 -1.26862e-11 -1.26862e-11 0 -8.66736e-28 0 -1.71633e-19 0 0 
1407.71 -1.21982e-13 0 0 0 0 0 -4.86221e-11 -1.26862e-11 -1.26862e-11 0 -8.66736e-28 0 -1.71715e-19 0 0 
1408.37 -1.21982e-13 0 0 0 0 0 -4.86221e-11 -1.26862e-11 -1.26862e-11 0 -8.66736e-28 0 -1.71796e-19 0 0 
1409.03 -1.21982e-13 0 0 0 0 0 -4.86221e-11 -1.26862e-11 -1.26862e-11 0 -8.66736e-28 0 -1.71877e-19 0 0 
1409.69 -1.21982e-13 0 0 0 0 0 -4.86221e-11 -1.26862e-11 -1.26862e-11 0 -8.66736e-28 0 -1.71957e-19 0 0 
1410.34 -1.21982e-13 0 0 0 0 0 -4.86221e-11 -1.26862e-11 -1.26862e-11 0 -8.66736e-28 0 -1.72037e-19 0 0 
1410.99 -1.21982e-13 0 0 0 0 0 -4.86221e-11 -1.26862e-11 -1.26862e-11 0 -8.66736e-28 0 -1.72116e-19 0 0 
1411.63 -1.21982e-13 0 0 0 0 0 -4.86221e-11 -1.26862e-11 -1.26862e-11 0 -8.66736e-28 0 -1.72194e-19 0 0 
1412.27 -1.21982e-13 0 0 0 0 0 -4.86221e-11 -1.26862e-11 -1.26862e-11 0 -8.66736e-28 0 -1.72272e-19 0 0 
1412.91 -1.21982e-13 0 0 0 0 0 -4.86221e-11 -1.26862e-11 -1.26862e-11 0 -8.66736e-28 0 -1.7235e-19 0 0 
1413.54 -1.21982e-13 0 0 0 0 0 -4.86221e-11 -1.26862e-11 -1.26862e-11 0 -8.66736e-28 0 -1.72427e-19 0 0 
1414.17 -1.21982e-13 0 0 0 0 0 -4.86221e-11 -1.26862e-11 -1.26862e-11 0 -8.66736e-28 0 -1.72503e-19 0 0 
1414.79 -1.21982e-13 0 0 0 0 0 -4.86221e-11 -1.26862e-11 -1.26862e-11 0 -8.66736e-28 0 -1.72579e-19 0 0 
1415.41 -1.21982e-13 0 0 0 0 0 -4.86221e-11 -1.26862e-11 -1.26862e-11 0 -8.66736e-28 0 -1.72654e-19 0 0 
1416.02 -1.21982e-13 0 0 0 0 0 -4.86221e-11 -1.26862e-11 -1.26862e-11 0 -8.66736e-28 0 -1.72729e-19 0 0 
1416.63 -1.21982e-13 0 0 0 0 0 -4.86221e-11 -1.26862e-11 -1.26862e-11 0 -8.66736e-28 0 -1.72804e-19 0 0 
1417.24 -1.21982e-13 0 0 0 0 0 -4.86221e-11 -1.26862e-11 -1.26862e-11 0 -8.66736e-28 0 -1.72878e-19 0 0 
1417.84 -1.21982e-13 0 0 0 0 0 -4.86221e-11 -1.26862e-11 -1.26862e-11 0 -8.66736e-28 0 -1.72951e-19 0 0 
1418.44 -1.21982e-13 0 0 0 0 0 -4.86221e-11 -1.26862e-11 -1.26862e-11 0 -8.66736e-28 0 -1.73024e-19 0 0 
1419.03 -1.21982e-13 0 0 0 0 0 -4.86221e-11 -1.26862e-11 -1.26862e-11 0 -8.66736e-28 0 -1.73097e-19 0 0 
1419.62 -1.21982e-13 0 0 0 0 0 -4.86221e-11 -1.26862e-11 -1.26862e-11 0 -8.66736e-28 0 -1.73169e-19 0 0 
1420.21 -1.21982e-13 0 0 0 0 0 -4.86221e-11 -1.26862e-11 -1.26862e-11 0 -8.66736e-28 0 -1.7324e-19 0 0 
1420.79 -1.21982e-13 0 0 0 0 0 -4.86221e-11 -1.26862e-11 -1.26862e-11 0 -8.66736e-28 0 -1.73311e-19 0 0 
1421.37 -1.21982e-13 0 0 0 0 0 -4.86221e-11 -1.26862e-11 -1.26862e-11 0 -8.66736e-28 0 -1.73382e-19 0 0 
1421.95 -1.21982e-13 0 0 0 0 0 -4.86221e-11 -1.26862e-11 -1.26862e-11 0 -8.66736e-28 0 -1.73452e-19 0 0 
1422.52 -1.21982e-13 0 0 0 0 0 -4.86221e-11 -1.26862e-11 -1.26862e-11 0 -8.66736e-28 0 -1.73522e-19 0 0 
1423.08 -1.21982e-13 0 0 0 0 0 -4.86221e-11 -1.26862e-11 -1.26862e-11 0 -8.66736e-28 0 -1.73591e-19 0 0 
1423.65 -1.21982e-13 0 0 0 0 0 -4.86221e-11 -1.26862e-11 -1.26862e-11 0 -8.66736e-28 0 -1.7366e-19 0 0 
1424.21 -1.21982e-13 0 0 0 0 0 -4.86221e-11 -1.26862e-11 -1.26862e-11 0 -8.66736e-28 0 -1.73728e-19 0 0 
1424.76 -1.21982e-13 0 0 0 0 0 -4.86221e-11 -1.26862e-11 -1.26862e-11 0 -8.66736e-28 0 -1.73796e-19 0 0 
1425.32 -1.21982e-13 0 0 0 0 0 -4.86221e-11 -1.26862e-11 -1.26862e-11 0 -8.66736e-28 0 -1.73863e-19 0 0 
1425.87 -1.21982e-13 0 0 0 0 0 -4.86221e-11 -1.26862e-11 -1.26862e-11 0 -8.66736e-28 0 -1.7393e-19 0 0 
1426.41 -1.21982e-13 0 0 0 0 0 -4.86221e-11 -1.26862e-11 -1.26862e-11 0 -8.66736e-28 0 -1.73997e-19 0 0 
1426.95 -1.21982e-13 0 0 0 0 0 -4.86221e-11 -1.26862e-11 -1.26862e-11 0 -8.66736e-28 0 -1.74063e-19 0 0 
1427.49 -1.21982e-13 0 0 0 0 0 -4.86221e-11 -1.26862e-11 -1.26862e-11 0 -8.66736e-28 0 -1.74128e-19 0 0 
1428.02 -1.21982e-13 0 0 0 0 0 -4.86221e-11 -1.26862e-11 -1.26862e-11 0 -8.66736e-28 0 -1.74194e-19 0 0 
1428.56 -1.21982e-13 0 0 0 0 0 -4.86221e-11 -1.26862e-11 -1.26862e-11 0 -8.66736e-28 0 -1.74258e-19 0 0 
1429.08 -1.21982e-13 0 0 0 0 0 -4.86221e-11 -1.26862e-11 -1.26862e-11 0 -8.66736e-28 0 -1.74323e-19 0 0 
1429.61 -1.21982e-13 0 0 0 0 0 -4.86221e-11 -1.26862e-11 -1.26862e-11 0 -8.66736e-28 0 -1.74387e-19 0 0 
1430.13 -1.21982e-13 0 0 0 0 0 -4.86221e-11 -1.26862e-11 -1.26862e-11 0 -8.66736e-28 0 -1.7445e-19 0 0 
1430.64 -1.21982e-13 0 0 0 0 0 -4.86221e-11 -1.26862e-11 -1.26862e-11 0 -8.66736e-28 0 -1.74513e-19 0 0 
1431.16 -1.21982e-13 0 0 0 0 0 -4.86221e-11 -1.26862e-11 -1.26862e-11 0 -8.66736e-28 0 -1.74576e-19 0 0 
1431.67 -1.21982e-13 0 0 0 0 0 -4.86221e-11 -1.26862e-11 -1.26862e-11 0 -8.66736e-28 0 -1.74638e-19 0 0 
1432.18 -1.21982e-13 0 0 0 0 0 -4.86221e-11 -1.26862e-11 -1.26862e-11 0 -8.66736e-28 0 -1.747e-19 0 0 
1432.68 -1.21982e-13 0 0 0 0 0 -4.86221e-11 -1.26862e-11 -1.26862e-11 0 -8.66736e-28 0 -1.74761e-19 0 0 
1433.18 -1.21982e-13 0 0 0 0 0 -4.86221e-11 -1.26862e-11 -1.26862e-11 0 -8.66736e-28 0 -1.74822e-19 0 0 
1433.68 -1.21982e-13 0 0 0 0 0 -4.86221e-11 -1.26862e-11 -1.26862e-11 0 -8.66736e-28 0 -1.74883e-19 0 0 
1434.17 -1.21982e-13 0 0 0 0 0 -4.86221e-11 -1.26862e-11 -1.26862e-11 0 -8.66736e-28 0 -1.74943e-19 0 0 
1434.66 -1.21982e-13 0 0 0 0 0 -4.86221e-11 -1.26862e-11 -1.26862e-11 0 -8.66736e-28 0 -1.75003e-19 0 0 
1435.15 -1.21982e-13 0 0 0 0 0 -4.86221e-11 -1.26862e-11 -1.26862e-11 0 -8.66736e-28 0 -1.75062e-19 0 0 
1435.63 -1.21982e-13 0 0 0 0 0 -4.86221e-11 -1.26862e-11 -1.26862e-11 0 -8.66736e-28 0 -1.75121e-19 0 0 
1436.11 -1.21982e-13 0 0 0 0 0 -4.86221e-11 -1.26862e-11 -1.26862e-11 0 -8.66736e-28 0 -1.7518e-19 0 0 
1436.59 -1.21982e-13 0 0 0 0 0 -4.86221e-11 -1.26862e-11 -1.26862e-11 0 -8.66736e-28 0 -1.75238e-19 0 0 
1437.06 -1.21982e-13 0 0 0 0 0 -4.86221e-11 -1.26862e-11 -1.26862e-11 0 -8.66736e-28 0 -1.75296e-19 0 0 
1437.53 -1.21982e-13 0 0 0 0 0 -4.86221e-11 -1.26862e-11 -1.26862e-11 0 -8.66736e-28 0 -1.75354e-19 0 0 
1438 -1.21982e-13 0 0 0 0 0 -4.86221e-11 -1.26862e-11 -1.26862e-11 0 -8.66736e-28 0 -1.75411e-19 0 0 
1438.47 -1.21982e-13 0 0 0 0 0 -4.86221e-11 -1.26862e-11 -1.26862e-11 0 -8.66736e-28 0 -1.75467e-19 0 0 
1438.93 -1.21982e-13 0 0 0 0 0 -4.86221e-11 -1.26862e-11 -1.26862e-11 0 -8.66736e-28 0 -1.75524e-19 0 0 
1439.39 -1.21982e-13 0 0 0 0 0 -4.86221e-11 -1.26862e-11 -1.26862e-11 0 -8.66736e-28 0 -1.7558e-19 0 0 
1439.84 -1.21982e-13 0 0 0 0 0 -4.86221e-11 -1.26862e-11 -1.26862e-11 0 -8.66736e-28 0 -1.75635e-19 0 0 
1440.3 -1.21982e-13 0 0 0 0 0 -4.86221e-11 -1.26862e-11 -1.26862e-11 0 -8.66736e-28 0 -1.75691e-19 0 0 
1440.75 -1.21982e-13 0 0 0 0 0 -4.86221e-11 -1.26862e-11 -1.26862e-11 0 -8.66736e-28 0 -1.75745e-19 0 0 
1441.19 -1.21982e-13 0 0 0 0 0 -4.86221e-11 -1.26862e-11 -1.26862e-11 0 -8.66736e-28 0 -1.758e-19 0 0 
1441.64 -1.21982e-13 0 0 0 0 0 -4.86221e-11 -1.26862e-11 -1.26862e-11 0 -8.66736e-28 0 -1.75854e-19 0 0 
1442.08 -1.21982e-13 0 0 0 0 0 -4.86221e-11 -1.26862e-11 -1.26862e-11 0 -8.66736e-28 0 -1.75908e-19 0 0 
1442.52 -1.21982e-13 0 0 0 0 0 -4.86221e-11 -1.26862e-11 -1.26862e-11 0 -8.66736e-28 0 -1.75961e-19 0 0 
1442.95 -1.21982e-13 0 0 0 0 0 -4.86221e-11 -1.26862e-11 -1.26862e-11 0 -8.66736e-28 0 -1.76014e-19 0 0 
1443.38 -1.21982e-13 0 0 0 0 0 -4.86221e-11 -1.26862e-11 -1.26862e-11 0 -8.66736e-28 0 -1.76067e-19 0 0 
1443.81 -1.21982e-13 0 0 0 0 0 -4.86221e-11 -1.26862e-11 -1.26862e-11 0 -8.66736e-28 0 -1.76119e-19 0 0 
1444.24 -1.21982e-13 0 0 0 0 0 -4.86221e-11 -1.26862e-11 -1.26862e-11 0 -8.66736e-28 0 -1.76172e-19 0 0 
1444.66 -1.21982e-13 0 0 0 0 0 -4.86221e-11 -1.26862e-11 -1.26862e-11 0 -8.66736e-28 0 -1.76223e-19 0 0 
1445.08 -1.21982e-13 0 0 0 0 0 -4.86221e-11 -1.26862e-11 -1.26862e-11 0 -8.66736e-28 0 -1.76275e-19 0 0 
1445.5 -1.21982e-13 0 0 0 0 0 -4.86221e-11 -1.26862e-11 -1.26862e-11 0 -8.66736e-28 0 -1.76326e-19 0 0 
1445.92 -1.21982e-13 0 0 0 0 0 -4.86221e-11 -1.26862e-11 -1.26862e-11 0 -8.66736e-28 0 -1.76376e-19 0 0 
1446.33 -1.21982e-13 0 0 0 0 0 -4.86221e-11 -1.26862e-11 -1.26862e-11 0 -8.66736e-28 0 -1.76427e-19 0 0 
1446.74 -1.21982e-13 0 0 0 0 0 -4.86221e-11 -1.26862e-11 -1.26862e-11 0 -8.66736e-28 0 -1.76477e-19 0 0 
1447.15 -1.21982e-13 0 0 0 0 0 -4.86221e-11 -1.26862e-11 -1.26862e-11 0 -8.66736e-28 0 -1.76526e-19 0 0 
1447.55 -1.21982e-13 0 0 0 0 0 -4.86221e-11 -1.26862e-11 -1.26862e-11 0 -8.66736e-28 0 -1.76576e-19 0 0 
1447.95 -1.21982e-13 0 0 0 0 0 -4.86221e-11 -1.26862e-11 -1.26862e-11 0 -8.66736e-28 0 -1.76625e-19 0 0 
1448.35 -1.21982e-13 0 0 0 0 0 -4.86221e-11 -1.26862e-11 -1.26862e-11 0 -8.66736e-28 0 -1.76673e-19 0 0 
1448.75 -1.21982e-13 0 0 0 0 0 -4.86221e-11 -1.26862e-11 -1.26862e-11 0 -8.66736e-28 0 -1.76722e-19 0 0 
1449.14 -1.21982e-13 0 0 0 0 0 -4.86221e-11 -1.26862e-11 -1.26862e-11 0 -8.66736e-28 0 -1.7677e-19 0 0 
1449.53 -1.21982e-13 0 0 0 0 0 -4.86221e-11 -1.26862e-11 -1.26862e-11 0 -8.66736e-28 0 -1.76817e-19 0 0 
1449.92 -1.21982e-13 0 0 0 0 0 -4.86221e-11 -1.26862e-11 -1.26862e-11 0 -8.66736e-28 0 -1.76865e-19 0 0 
1450.31 -1.21982e-13 0 0 0 0 0 -4.86221e-11 -1.26862e-11 -1.26862e-11 0 -8.66736e-28 0 -1.76912e-19 0 0 
1450.69 -1.21982e-13 0 0 0 0 0 -4.86221e-11 -1.26862e-11 -1.26862e-11 0 -8.66736e-28 0 -1.76959e-19 0 0 
1451.07 -1.21982e-13 0 0 0 0 0 -4.86221e-11 -1.26862e-11 -1.26862e-11 0 -8.66736e-28 0 -1.77005e-19 0 0 
1451.45 -1.21982e-13 0 0 0 0 0 -4.86221e-11 -1.26862e-11 -1.26862e-11 0 -8.66736e-28 0 -1.77051e-19 0 0 
1451.83 -1.21982e-13 0 0 0 0 0 -4.86221e-11 -1.26862e-11 -1.26862e-11 0 -8.66736e-28 0 -1.77097e-19 0 0 
1452.2 -1.21982e-13 0 0 0 0 0 -4.86221e-11 -1.26862e-11 -1.26862e-11 0 -8.66736e-28 0 -1.77143e-19 0 0 
1452.57 -1.21982e-13 0 0 0 0 0 -4.86221e-11 -1.26862e-11 -1.26862e-11 0 -8.66736e-28 0 -1.77188e-19 0 0 
1452.94 -1.21982e-13 0 0 0 0 0 -4.86221e-11 -1.26862e-11 -1.26862e-11 0 -8.66736e-28 0 -1.77233e-19 0 0 
1453.31 -1.21982e-13 0 0 0 0 0 -4.86221e-11 -1.26862e-11 -1.26862e-11 0 -8.66736e-28 0 -1.77278e-19 0 0 
1453.67 -1.21982e-13 0 0 0 0 0 -4.86221e-11 -1.26862e-11 -1.26862e-11 0 -8.66736e-28 0 -1.77322e-19 0 0 
1454.03 -1.21982e-13 0 0 0 0 0 -4.86221e-11 -1.26862e-11 -1.26862e-11 0 -8.66736e-28 0 -1.77366e-19 0 0 
1454.39 -1.21982e-13 0 0 0 0 0 -4.86221e-11 -1.26862e-11 -1.26862e-11 0 -8.66736e-28 0 -1.7741e-19 0 0 
1454.75 -1.21982e-13 0 0 0 0 0 -4.86221e-11 -1.26862e-11 -1.26862e-11 0 -8.66736e-28 0 -1.77453e-19 0 0 
1455.1 -1.21982e-13 0 0 0 0 0 -4.86221e-11 -1.26862e-11 -1.26862e-11 0 -8.66736e-28 0 -1.77497e-19 0 0 
1455.45 -1.21982e-13 0 0 0 0 0 -4.86221e-11 -1.26862e-11 -1.26862e-11 0 -8.66736e-28 0 -1.77539e-19 0 0 
1455.8 -1.21982e-13 0 0 0 0 0 -4.86221e-11 -1.26862e-11 -1.26862e-11 0 -8.66736e-28 0 -1.77582e-19 0 0 
1456.15 -1.21982e-13 0 0 0 0 0 -4.86221e-11 -1.26862e-11 -1.26862e-11 0 -8.66736e-28 0 -1.77624e-19 0 0 
1456.5 -1.21982e-13 0 0 0 0 0 -4.86221e-11 -1.26862e-11 -1.26862e-11 0 -8.66736e-28 0 -1.77667e-19 0 0 
1456.84 -1.21982e-13 0 0 0 0 0 -4.86221e-11 -1.26862e-11 -1.26862e-11 0 -8.66736e-28 0 -1.77708e-19 0 0 
1457.18 -1.21982e-13 0 0 0 0 0 -4.86221e-11 -1.26862e-11 -1.26862e-11 0 -8.66736e-28 0 -1.7775e-19 0 0 
1457.52 -1.21982e-13 0 0 0 0 0 -4.86221e-11 -1.26862e-11 -1.26862e-11 0 -8.66736e-28 0 -1.77791e-19 0 0 
1457.85 -1.21982e-13 0 0 0 0 0 -4.86221e-11 -1.26862e-11 -1.26862e-11 0 -8.66736e-28 0 -1.77832e-19 0 0 
1458.19 -1.21982e-13 0 0 0 0 0 -4.86221e-11 -1.26862e-11 -1.26862e-11 0 -8.66736e-28 0 -1.77873e-19 0 0 
1458.52 -1.21982e-13 0 0 0 0 0 -4.86221e-11 -1.26862e-11 -1.26862e-11 0 -8.66736e-28 0 -1.77913e-19 0 0 
1458.85 -1.21982e-13 0 0 0 0 0 -4.86221e-11 -1.26862e-11 -1.26862e-11 0 -8.66736e-28 0 -1.77953e-19 0 0 
1459.17 -1.21982e-13 0 0 0 0 0 -4.86221e-11 -1.26862e-11 -1.26862e-11 0 -8.66736e-28 0 -1.77993e-19 0 0 
1459.5 -1.21982e-13 0 0 0 0 0 -4.86221e-11 -1.26862e-11 -1.26862e-11 0 -8.66736e-28 0 -1.78033e-19 0 0 
1459.82 -1.21982e-13 0 0 0 0 0 -4.86221e-11 -1.26862e-11 -1.26862e-11 0 -8.66736e-28 0 -1.78072e-19 0 0 
1460.14 -1.21982e-13 0 0 0 0 0 -4.86221e-11 -1.26862e-11 -1.26862e-11 0 -8.66736e-28 0 -1.78111e-19 0 0 
1460.46 -1.21982e-13 0 0 0 0 0 -4.86221e-11 -1.26862e-11 -1.26862e-11 0 -8.66736e-28 0 -1.7815e-19 0 0 
1460.78 -1.21982e-13 0 0 0 0 0 -4.86221e-11 -1.26862e-11 -1.26862e-11 0 -8.66736e-28 0 -1.78189e-19 0 0 
1461.09 -1.21982e-13 0 0 0 0 0 -4.86221e-11 -1.26862e-11 -1.26862e-11 0 -8.66736e-28 0 -1.78227e-19 0 0 
1461.4 -1.21982e-13 0 0 0 0 0 -4.86221e-11 -1.26862e-11 -1.26862e-11 0 -8.66736e-28 0 -1.78265e-19 0 0 
1461.71 -1.21982e-13 0 0 0 0 0 -4.86221e-11 -1.26862e-11 -1.26862e-11 0 -8.66736e-28 0 -1.78303e-19 0 0 
1462.02 -1.21982e-13 0 0 0 0 0 -4.86221e-11 -1.26862e-11 -1.26862e-11 0 -8.66736e-28 0 -1.78341e-19 0 0 
1462.33 -1.21982e-13 0 0 0 0 0 -4.86221e-11 -1.26862e-11 -1.26862e-11 0 -8.66736e-28 0 -1.78378e-19 0 0 
1462.63 -1.21982e-13 0 0 0 0 0 -4.86221e-11 -1.26862e-11 -1.26862e-11 0 -8.66736e-28 0 -1.78415e-19 0 0 
1462.93 -1.21982e-13 0 0 0 0 0 -4.86221e-11 -1.26862e-11 -1.26862e-11 0 -8.66736e-28 0 -1.78452e-19 0 0 
1463.23 -1.21982e-13 0 0 0 0 0 -4.86221e-11 -1.26862e-11 -1.26862e-11 0 -8.66736e-28 0 -1.78489e-19 0 0 
1463.53 -1.21982e-13 0 0 0 0 0 -4.86221e-11 -1.26862e-11 -1.26862e-11 0 -8.66736e-28 0 -1.78525e-19 0 0 
1463.83 -1.21982e-13 0 0 0 0 0 -4.86221e-11 -1.26862e-11 -1.26862e-11 0 -8.66736e-28 0 -1.78561e-19 0 0 
1464.12 -1.21982e-13 0 0 0 0 0 -4.86221e-11 -1.26862e-11 -1.26862e-11 0 -8.66736e-28 0 -1.78597e-19 0 0 
1464.41 -1.21982e-13 0 0 0 0 0 -4.86221e-11 -1.26862e-11 -1.26862e-11 0 -8.66736e-28 0 -1.78633e-19 0 0 
1464.7 -1.21982e-13 0 0 0 0 0 -4.86221e-11 -1.26862e-11 -1.26862e-11 0 -8.66736e-28 0 -1.78668e-19 0 0 
1464.99 -1.21982e-13 0 0 0 0 0 -4.86221e-11 -1.26862e-11 -1.26862e-11 0 -8.66736e-28 0 -1.78703e-19 0 0 
1465.28 -1.21982e-13 0 0 0 0 0 -4.86221e-11 -1.26862e-11 -1.26862e-11 0 -8.66736e-28 0 -1.78738e-19 0 0 
1465.56 -1.21982e-13 0 0 0 0 0 -4.86221e-11 -1.26862e-11 -1.26862e-11 0 -8.66736e-28 0 -1.78773e-19 0 0 
1465.85 -1.21982e-13 0 0 0 0 0 -4.86221e-11 -1.26862e-11 -1.26862e-11 0 -8.66736e-28 0 -1.78807e-19 0 0 
1466.13 -1.21982e-13 0 0 0 0 0 -4.86221e-11 -1.26862e-11 -1.26862e-11 0 -8.66736e-28 0 -1.78842e-19 0 0 
1466.41 -1.21982e-13 0 0 0 0 0 -4.86221e-11 -1.26862e-11 -1.26862e-11 0 -8.66736e-28 0 -1.78876e-19 0 0 
1466.68 -1.21982e-13 0 0 0 0 0 -4.86221e-11 -1.26862e-11 -1.26862e-11 0 -8.66736e-28 0 -1.78909e-19 0 0 
1466.96 -1.21982e-13 0 0 0 0 0 -4.86221e-11 -1.26862e-11 -1.26862e-11 0 -8.66736e-28 0 -1.78943e-19 0 0 
1467.23 -1.21982e-13 0 0 0 0 0 -4.86221e-11 -1.26862e-11 -1.26862e-11 0 -8.66736e-28 0 -1.78976e-19 0 0 
1467.5 -1.21982e-13 0 0 0 0 0 -4.86221e-11 -1.26862e-11 -1.26862e-11 0 -8.66736e-28 0 -1.79009e-19 0 0 
1467.77 -1.21982e-13 0 0 0 0 0 -4.86221e-11 -1.26862e-11 -1.26862e-11 0 -8.66736e-28 0 -1.79042e-19 0 0 
1468.04 -1.21982e-13 0 0 0 0 0 -4.86221e-11 -1.26862e-11 -1.26862e-11 0 -8.66736e-28 0 -1.79075e-19 0 0 
1468.31 -1.21982e-13 0 0 0 0 0 -4.86221e-11 -1.26862e-11 -1.26862e-11 0 -8.66736e-28 0 -1.79107e-19 0 0 
1468.57 -1.21982e-13 0 0 0 0 0 -4.86221e-11 -1.26862e-11 -1.26862e-11 0 -8.66736e-28 0 -1.7914e-19 0 0 
1468.84 -1.21982e-13 0 0 0 0 0 -4.86221e-11 -1.26862e-11 -1.26862e-11 0 -8.66736e-28 0 -1.79172e-19 0 0 
1469.1 -1.21982e-13 0 0 0 0 0 -4.86221e-11 -1.26862e-11 -1.26862e-11 0 -8.66736e-28 0 -1.79204e-19 0 0 
1469.36 -1.21982e-13 0 0 0 0 0 -4.86221e-11 -1.26862e-11 -1.26862e-11 0 -8.66736e-28 0 -1.79235e-19 0 0 
1469.61 -1.21982e-13 0 0 0 0 0 -4.86221e-11 -1.26862e-11 -1.26862e-11 0 -8.66736e-28 0 -1.79267e-19 0 0 
1469.87 -1.21982e-13 0 0 0 0 0 -4.86221e-11 -1.26862e-11 -1.26862e-11 0 -8.66736e-28 0 -1.79298e-19 0 0 
1470.12 -1.21982e-13 0 0 0 0 0 -4.86221e-11 -1.26862e-11 -1.26862e-11 0 -8.66736e-28 0 -1.79329e-19 0 0 
1470.38 -1.21982e-13 0 0 0 0 0 -4.86221e-11 -1.26862e-11 -1.26862e-11 0 -8.66736e-28 0 -1.7936e-19 0 0 
1470.63 -1.21982e-13 0 0 0 0 0 -4.86221e-11 -1.26862e-11 -1.26862e-11 0 -8.66736e-28 0 -1.7939e-19 0 0 
1470.88 -1.21982e-13 0 0 0 0 0 -4.86221e-11 -1.26862e-11 -1.26862e-11 0 -8.66736e-28 0 -1.79421e-19 0 0 
1471.12 -1.21982e-13 0 0 0 0 0 -4.86221e-11 -1.26862e-11 -1.26862e-11 0 -8.66736e-28 0 -1.79451e-19 0 0 
1471.37 -1.21982e-13 0 0 0 0 0 -4.86221e-11 -1.26862e-11 -1.26862e-11 0 -8.66736e-28 0 -1.79481e-19 0 0 
1471.61 -1.21982e-13 0 0 0 0 0 -4.86221e-11 -1.26862e-11 -1.26862e-11 0 -8.66736e-28 0 -1.79511e-19 0 0 
1471.86 -1.21982e-13 0 0 0 0 0 -4.86221e-11 -1.26862e-11 -1.26862e-11 0 -8.66736e-28 0 -1.7954e-19 0 0 
1472.1 -1.21982e-13 0 0 0 0 0 -4.86221e-11 -1.26862e-11 -1.26862e-11 0 -8.66736e-28 0 -1.7957e-19 0 0 
1472.34 -1.21982e-13 0 0 0 0 0 -4.86221e-11 -1.26862e-11 -1.26862e-11 0 -8.66736e-28 0 -1.79599e-19 0 0 
1472.57 -1.21982e-13 0 0 0 0 0 -4.86221e-11 -1.26862e-11 -1.26862e-11 0 -8.66736e-28 0 -1.79628e-19 0 0 
1472.81 -1.21982e-13 0 0 0 0 0 -4.86221e-11 -1.26862e-11 -1.26862e-11 0 -8.66736e-28 0 -1.79657e-19 0 0 
1473.05 -1.21982e-13 0 0 0 0 0 -4.86221e-11 -1.26862e-11 -1.26862e-11 0 -8.66736e-28 0 -1.79685e-19 0 0 
1473.28 -1.21982e-13 0 0 0 0 0 -4.86221e-11 -1.26862e-11 -1.26862e-11 0 -8.66736e-28 0 -1.79714e-19 0 0 
1473.51 -1.21982e-13 0 0 0 0 0 -4.86221e-11 -1.26862e-11 -1.26862e-11 0 -8.66736e-28 0 -1.79742e-19 0 0 
1473.74 -1.21982e-13 0 0 0 0 0 -4.86221e-11 -1.26862e-11 -1.26862e-11 0 -8.66736e-28 0 -1.7977e-19 0 0 
1473.97 -1.21982e-13 0 0 0 0 0 -4.86221e-11 -1.26862e-11 -1.26862e-11 0 -8.66736e-28 0 -1.79798e-19 0 0 
1474.2 -1.21982e-13 0 0 0 0 0 -4.86221e-11 -1.26862e-11 -1.26862e-11 0 -8.66736e-28 0 -1.79826e-19 0 0 
1474.42 -1.21982e-13 0 0 0 0 0 -4.86221e-11 -1.26862e-11 -1.26862e-11 0 -8.66736e-28 0 -1.79853e-19 0 0 
1474.65 -1.21982e-13 0 0 0 0 0 -4.86221e-11 -1.26862e-11 -1.26862e-11 0 -8.66736e-28 0 -1.79881e-19 0 0 
1474.87 -1.21982e-13 0 0 0 0 0 -4.86221e-11 -1.26862e-11 -1.26862e-11 0 -8.66736e-28 0 -1.79908e-19 0 0 
1475.09 -1.21982e-13 0 0 0 0 0 -4.86221e-11 -1.26862e-11 -1.26862e-11 0 -8.66736e-28 0 -1.79935e-19 0 0 
1475.31 -1.21982e-13 0 0 0 0 0 -4.86221e-11 -1.26862e-11 -1.26862e-11 0 -8.66736e-28 0 -1.79961e-19 0 0 
1475.53 -1.21982e-13 0 0 0 0 0 -4.86221e-11 -1.26862e-11 -1.26862e-11 0 -8.66736e-28 0 -1.79988e-19 0 0 
1475.74 -1.21982e-13 0 0 0 0 0 -4.86221e-11 -1.26862e-11 -1.26862e-11 0 -8.66736e-28 0 -1.80014e-19 0 0 
1475.96 -1.21982e-13 0 0 0 0 0 -4.86221e-11 -1.26862e-11 -1.26862e-11 0 -8.66736e-28 0 -1.80041e-19 0 0 
1476.17 -1.21982e-13 0 0 0 0 0 -4.86221e-11 -1.26862e-11 -1.26862e-11 0 -8.66736e-28 0 -1.80067e-19 0 0 
1476.39 -1.21982e-13 0 0 0 0 0 -4.86221e-11 -1.26862e-11 -1.26862e-11 0 -8.66736e-28 0 -1.80093e-19 0 0 
1476.6 -1.21982e-13 0 0 0 0 0 -4.86221e-11 -1.26862e-11 -1.26862e-11 0 -8.66736e-28 0 -1.80119e-19 0 0 
1476.81 -1.21982e-13 0 0 0 0 0 -4.86221e-11 -1.26862e-11 -1.26862e-11 0 -8.66736e-28 0 -1.80144e-19 0 0 
1477.01 -1.21982e-13 0 0 0 0 0 -4.86221e-11 -1.26862e-11 -1.26862e-11 0 -8.66736e-28 0 -1.8017e-19 0 0 
1477.22 -1.21982e-13 0 0 0 0 0 -4.86221e-11 -1.26862e-11 -1.26862e-11 0 -8.66736e-28 0 -1.80195e-19 0 0 
1477.43 -1.21982e-13 0 0 0 0 0 -4.86221e-11 -1.26862e-11 -1.26862e-11 0 -8.66736e-28 0 -1.8022e-19 0 0 
1477.63 -1.21982e-13 0 0 0 0 0 -4.86221e-11 -1.26862e-11 -1.26862e-11 0 -8.66736e-28 0 -1.80245e-19 0 0 
1477.83 -1.21982e-13 0 0 0 0 0 -4.86221e-11 -1.26862e-11 -1.26862e-11 0 -8.66736e-28 0 -1.80269e-19 0 0 
1478.04 -1.21982e-13 0 0 0 0 0 -4.86221e-11 -1.26862e-11 -1.26862e-11 0 -8.66736e-28 0 -1.80294e-19 0 0 
1478.24 -1.21982e-13 0 0 0 0 0 -4.86221e-11 -1.26862e-11 -1.26862e-11 0 -8.66736e-28 0 -1.80318e-19 0 0 
1478.43 -1.21982e-13 0 0 0 0 0 -4.86221e-11 -1.26862e-11 -1.26862e-11 0 -8.66736e-28 0 -1.80343e-19 0 0 
1478.63 -1.21982e-13 0 0 0 0 0 -4.86221e-11 -1.26862e-11 -1.26862e-11 0 -8.66736e-28 0 -1.80367e-19 0 0 
1478.83 -1.21982e-13 0 0 0 0 0 -4.86221e-11 -1.26862e-11 -1.26862e-11 0 -8.66736e-28 0 -1.80391e-19 0 0 
1479.02 -1.21982e-13 0 0 0 0 0 -4.86221e-11 -1.26862e-11 -1.26862e-11 0 -8.66736e-28 0 -1.80415e-19 0 0 
1479.22 -1.21982e-13 0 0 0 0 0 -4.86221e-11 -1.26862e-11 -1.26862e-11 0 -8.66736e-28 0 -1.80438e-19 0 0 
1479.41 -1.21982e-13 0 0 0 0 0 -4.86221e-11 -1.26862e-11 -1.26862e-11 0 -8.66736e-28 0 -1.80462e-19 0 0 
1479.6 -1.21982e-13 0 0 0 0 0 -4.86221e-11 -1.26862e-11 -1.26862e-11 0 -8.66736e-28 0 -1.80485e-19 0 0 
1479.79 -1.21982e-13 0 0 0 0 0 -4.86221e-11 -1.26862e-11 -1.26862e-11 0 -8.66736e-28 0 -1.80508e-19 0 0 
1479.98 -1.21982e-13 0 0 0 0 0 -4.86221e-11 -1.26862e-11 -1.26862e-11 0 -8.66736e-28 0 -1.80531e-19 0 0 
1480.17 -1.21982e-13 0 0 0 0 0 -4.86221e-11 -1.26862e-11 -1.26862e-11 0 -8.66736e-28 0 -1.80554e-19 0 0 
1480.35 -1.21982e-13 0 0 0 0 0 -4.86221e-11 -1.26862e-11 -1.26862e-11 0 -8.66736e-28 0 -1.80577e-19 0 0 
1480.54 -1.21982e-13 0 0 0 0 0 -4.86221e-11 -1.26862e-11 -1.26862e-11 0 -8.66736e-28 0 -1.80599e-19 0 0 
1480.72 -1.21982e-13 0 0 0 0 0 -4.86221e-11 -1.26862e-11 -1.26862e-11 0 -8.66736e-28 0 -1.80622e-19 0 0 
1480.9 -1.21982e-13 0 0 0 0 0 -4.86221e-11 -1.26862e-11 -1.26862e-11 0 -8.66736e-28 0 -1.80644e-19 0 0 
1481.08 -1.21982e-13 0 0 0 0 0 -4.86221e-11 -1.26862e-11 -1.26862e-11 0 -8.66736e-28 0 -1.80666e-19 0 0 
1481.26 -1.21982e-13 0 0 0 0 0 -4.86221e-11 -1.26862e-11 -1.26862e-11 0 -8.66736e-28 0 -1.80688e-19 0 0 
1481.44 -1.21982e-13 0 0 0 0 0 -4.86221e-11 -1.26862e-11 -1.26862e-11 0 -8.66736e-28 0 -1.8071e-19 0 0 
1481.62 -1.21982e-13 0 0 0 0 0 -4.86221e-11 -1.26862e-11 -1.26862e-11 0 -8.66736e-28 0 -1.80731e-19 0 0 
1481.8 -1.21982e-13 0 0 0 0 0 -4.86221e-11 -1.26862e-11 -1.26862e-11 0 -8.66736e-28 0 -1.80753e-19 0 0 
1481.97 -1.21982e-13 0 0 0 0 0 -4.86221e-11 -1.26862e-11 -1.26862e-11 0 -8.66736e-28 0 -1.80774e-19 0 0 
1482.15 -1.21982e-13 0 0 0 0 0 -4.86221e-11 -1.26862e-11 -1.26862e-11 0 -8.66736e-28 0 -1.80795e-19 0 0 
1482.32 -1.21982e-13 0 0 0 0 0 -4.86221e-11 -1.26862e-11 -1.26862e-11 0 -8.66736e-28 0 -1.80817e-19 0 0 
1482.49 -1.21982e-13 0 0 0 0 0 -4.86221e-11 -1.26862e-11 -1.26862e-11 0 -8.66736e-28 0 -1.80838e-19 0 0 
1482.66 -1.21982e-13 0 0 0 0 0 -4.86221e-11 -1.26862e-11 -1.26862e-11 0 -8.66736e-28 0 -1.80858e-19 0 0 
1482.83 -1.21982e-13 0 0 0 0 0 -4.86221e-11 -1.26862e-11 -1.26862e-11 0 -8.66736e-28 0 -1.80879e-19 0 0 
1483 -1.21982e-13 0 0 0 0 0 -4.86221e-11 -1.26862e-11 -1.26862e-11 0 -8.66736e-28 0 -1.809e-19 0 0 
1483.17 -1.21982e-13 0 0 0 0 0 -4.86221e-11 -1.26862e-11 -1.26862e-11 0 -8.66736e-28 0 -1.8092e-19 0 0 
1483.33 -1.21982e-13 0 0 0 0 0 -4.86221e-11 -1.26862e-11 -1.26862e-11 0 -8.66736e-28 0 -1.8094e-19 0 0 
1483.5 -1.21982e-13 0 0 0 0 0 -4.86221e-11 -1.26862e-11 -1.26862e-11 0 -8.66736e-28 0 -1.8096e-19 0 0 
1483.66 -1.21982e-13 0 0 0 0 0 -4.86221e-11 -1.26862e-11 -1.26862e-11 0 -8.66736e-28 0 -1.8098e-19 0 0 
1483.82 -1.21982e-13 0 0 0 0 0 -4.86221e-11 -1.26862e-11 -1.26862e-11 0 -8.66736e-28 0 -1.81e-19 0 0 
1483.99 -1.21982e-13 0 0 0 0 0 -4.86221e-11 -1.26862e-11 -1.26862e-11 0 -8.66736e-28 0 -1.8102e-19 0 0 
1484.15 -1.21982e-13 0 0 0 0 0 -4.86221e-11 -1.26862e-11 -1.26862e-11 0 -8.66736e-28 0 -1.8104e-19 0 0 
1484.31 -1.21982e-13 0 0 0 0 0 -4.86221e-11 -1.26862e-11 -1.26862e-11 0 -8.66736e-28 0 -1.81059e-19 0 0 
1484.47 -1.21982e-13 0 0 0 0 0 -4.86221e-11 -1.26862e-11 -1.26862e-11 0 -8.66736e-28 0 -1.81078e-19 0 0 
1484.62 -1.21982e-13 0 0 0 0 0 -4.86221e-11 -1.26862e-11 -1.26862e-11 0 -8.66736e-28 0 -1.81098e-19 0 0 
1484.78 -1.21982e-13 0 0 0 0 0 -4.86221e-11 -1.26862e-11 -1.26862e-11 0 -8.66736e-28 0 -1.81117e-19 0 0 
1484.94 -1.21982e-13 0 0 0 0 0 -4.86221e-11 -1.26862e-11 -1.26862e-11 0 -8.66736e-28 0 -1.81136e-19 0 0 
1485.09 -1.21982e-13 0 0 0 0 0 -4.86221e-11 -1.26862e-11 -1.26862e-11 0 -8.66736e-28 0 -1.81155e-19 0 0 
1485.24 -1.21982e-13 0 0 0 0 0 -4.86221e-11 -1.26862e-11 -1.26862e-11 0 -8.66736e-28 0 -1.81173e-19 0 0 
1485.4 -1.21982e-13 0 0 0 0 0 -4.86221e-11 -1.26862e-11 -1.26862e-11 0 -8.66736e-28 0 -1.81192e-19 0 0 
1485.55 -1.21982e-13 0 0 0 0 0 -4.86221e-11 -1.26862e-11 -1.26862e-11 0 -8.66736e-28 0 -1.8121e-19 0 0 
1485.7 -1.21982e-13 0 0 0 0 0 -4.86221e-11 -1.26862e-11 -1.26862e-11 0 -8.66736e-28 0 -1.81229e-19 0 0 
1485.85 -1.21982e-13 0 0 0 0 0 -4.86221e-11 -1.26862e-11 -1.26862e-11 0 -8.66736e-28 0 -1.81247e-19 0 0 
1486 -1.21982e-13 0 0 0 0 0 -4.86221e-11 -1.26862e-11 -1.26862e-11 0 -8.66736e-28 0 -1.81265e-19 0 0 
1486.14 -1.21982e-13 0 0 0 0 0 -4.86221e-11 -1.26862e-11 -1.26862e-11 0 -8.66736e-28 0 -1.81283e-19 0 0 
1486.29 -1.21982e-13 0 0 0 0 0 -4.86221e-11 -1.26862e-11 -1.26862e-11 0 -8.66736e-28 0 -1.81301e-19 0 0 
1486.44 -1.21982e-13 0 0 0 0 0 -4.86221e-11 -1.26862e-11 -1.26862e-11 0 -8.66736e-28 0 -1.81319e-19 0 0 
1486.58 -1.21982e-13 0 0 0 0 0 -4.86221e-11 -1.26862e-11 -1.26862e-11 0 -8.66736e-28 0 -1.81336e-19 0 0 
1486.72 -1.21982e-13 0 0 0 0 0 -4.86221e-11 -1.26862e-11 -1.26862e-11 0 -8.66736e-28 0 -1.81354e-19 0 0 
1486.87 -1.21982e-13 0 0 0 0 0 -4.86221e-11 -1.26862e-11 -1.26862e-11 0 -8.66736e-28 0 -1.81371e-19 0 0 
1487.01 -1.21982e-13 0 0 0 0 0 -4.86221e-11 -1.26862e-11 -1.26862e-11 0 -8.66736e-28 0 -1.81389e-19 0 0 
1487.15 -1.21982e-13 0 0 0 0 0 -4.86221e-11 -1.26862e-11 -1.26862e-11 0 -8.66736e-28 0 -1.81406e-19 0 0 
1487.29 -1.21982e-13 0 0 0 0 0 -4.86221e-11 -1.26862e-11 -1.26862e-11 0 -8.66736e-28 0 -1.81423e-19 0 0 
1487.43 -1.21982e-13 0 0 0 0 0 -4.86221e-11 -1.26862e-11 -1.26862e-11 0 -8.66736e-28 0 -1.8144e-19 0 0 
1487.57 -1.21982e-13 0 0 0 0 0 -4.86221e-11 -1.26862e-11 -1.26862e-11 0 -8.66736e-28 0 -1.81457e-19 0 0 
1487.7 -1.21982e-13 0 0 0 0 0 -4.86221e-11 -1.26862e-11 -1.26862e-11 0 -8.66736e-28 0 -1.81473e-19 0 0 
1487.84 -1.21982e-13 0 0 0 0 0 -4.86221e-11 -1.26862e-11 -1.26862e-11 0 -8.66736e-28 0 -1.8149e-19 0 0 
1487.97 -1.21982e-13 0 0 0 0 0 -4.86221e-11 -1.26862e-11 -1.26862e-11 0 -8.66736e-28 0 -1.81506e-19 0 0 
1488.11 -1.21982e-13 0 0 0 0 0 -4.86221e-11 -1.26862e-11 -1.26862e-11 0 -8.66736e-28 0 -1.81523e-19 0 0 
1488.24 -1.21982e-13 0 0 0 0 0 -4.86221e-11 -1.26862e-11 -1.26862e-11 0 -8.66736e-28 0 -1.81539e-19 0 0 
1488.38 -1.21982e-13 0 0 0 0 0 -4.86221e-11 -1.26862e-11 -1.26862e-11 0 -8.66736e-28 0 -1.81555e-19 0 0 
1488.51 -1.21982e-13 0 0 0 0 0 -4.86221e-11 -1.26862e-11 -1.26862e-11 0 -8.66736e-28 0 -1.81571e-19 0 0 
1488.64 -1.21982e-13 0 0 0 0 0 -4.86221e-11 -1.26862e-11 -1.26862e-11 0 -8.66736e-28 0 -1.81587e-19 0 0 
1488.77 -1.21982e-13 0 0 0 0 0 -4.86221e-11 -1.26862e-11 -1.26862e-11 0 -8.66736e-28 0 -1.81603e-19 0 0 
1488.9 -1.21982e-13 0 0 0 0 0 -4.86221e-11 -1.26862e-11 -1.26862e-11 0 -8.66736e-28 0 -1.81619e-19 0 0 
1489.03 -1.21982e-13 0 0 0 0 0 -4.86221e-11 -1.26862e-11 -1.26862e-11 0 -8.66736e-28 0 -1.81635e-19 0 0 
1489.15 -1.21982e-13 0 0 0 0 0 -4.86221e-11 -1.26862e-11 -1.26862e-11 0 -8.66736e-28 0 -1.8165e-19 0 0 
1489.28 -1.21982e-13 0 0 0 0 0 -4.86221e-11 -1.26862e-11 -1.26862e-11 0 -8.66736e-28 0 -1.81666e-19 0 0 
1489.41 -1.21982e-13 0 0 0 0 0 -4.86221e-11 -1.26862e-11 -1.26862e-11 0 -8.66736e-28 0 -1.81681e-19 0 0 
1489.53 -1.21982e-13 0 0 0 0 0 -4.86221e-11 -1.26862e-11 -1.26862e-11 0 -8.66736e-28 0 -1.81696e-19 0 0 
1489.65 -1.21982e-13 0 0 0 0 0 -4.86221e-11 -1.26862e-11 -1.26862e-11 0 -8.66736e-28 0 -1.81711e-19 0 0 
1489.78 -1.21982e-13 0 0 0 0 0 -4.86221e-11 -1.26862e-11 -1.26862e-11 0 -8.66736e-28 0 -1.81726e-19 0 0 
1489.9 -1.21982e-13 0 0 0 0 0 -4.86221e-11 -1.26862e-11 -1.26862e-11 0 -8.66736e-28 0 -1.81741e-19 0 0 
1490.02 -1.21982e-13 0 0 0 0 0 -4.86221e-11 -1.26862e-11 -1.26862e-11 0 -8.66736e-28 0 -1.81756e-19 0 0 
1490.14 -1.21982e-13 0 0 0 0 0 -4.86221e-11 -1.26862e-11 -1.26862e-11 0 -8.66736e-28 0 -1.81771e-19 0 0 
1490.26 -1.21982e-13 0 0 0 0 0 -4.86221e-11 -1.26862e-11 -1.26862e-11 0 -8.66736e-28 0 -1.81786e-19 0 0 
1490.38 -1.21982e-13 0 0 0 0 0 -4.86221e-11 -1.26862e-11 -1.26862e-11 0 -8.66736e-28 0 -1.818e-19 0 0 
1490.5 -1.21982e-13 0 0 0 0 0 -4.86221e-11 -1.26862e-11 -1.26862e-11 0 -8.66736e-28 0 -1.81815e-19 0 0 
1490.62 -1.21982e-13 0 0 0 0 0 -4.86221e-11 -1.26862e-11 -1.26862e-11 0 -8.66736e-28 0 -1.81829e-19 0 0 
1490.74 -1.21982e-13 0 0 0 0 0 -4.86221e-11 -1.26862e-11 -1.26862e-11 0 -8.66736e-28 0 -1.81843e-19 0 0 
1490.85 -1.21982e-13 0 0 0 0 0 -4.86221e-11 -1.26862e-11 -1.26862e-11 0 -8.66736e-28 0 -1.81857e-19 0 0 
1490.97 -1.21982e-13 0 0 0 0 0 -4.86221e-11 -1.26862e-11 -1.26862e-11 0 -8.66736e-28 0 -1.81871e-19 0 0 
1491.08 -1.21982e-13 0 0 0 0 0 -4.86221e-11 -1.26862e-11 -1.26862e-11 0 -8.66736e-28 0 -1.81885e-19 0 0 
1491.2 -1.21982e-13 0 0 0 0 0 -4.86221e-11 -1.26862e-11 -1.26862e-11 0 -8.66736e-28 0 -1.81899e-19 0 0 
1491.31 -1.21982e-13 0 0 0 0 0 -4.86221e-11 -1.26862e-11 -1.26862e-11 0 -8.66736e-28 0 -1.81913e-19 0 0 
1491.42 -1.21982e-13 0 0 0 0 0 -4.86221e-11 -1.26862e-11 -1.26862e-11 0 -8.66736e-28 0 -1.81927e-19 0 0 
1491.53 -1.21982e-13 0 0 0 0 0 -4.86221e-11 -1.26862e-11 -1.26862e-11 0 -8.66736e-28 0 -1.8194e-19 0 0 
1491.64 -1.21982e-13 0 0 0 0 0 -4.86221e-11 -1.26862e-11 -1.26862e-11 0 -8.66736e-28 0 -1.81954e-19 0 0 
1491.75 -1.21982e-13 0 0 0 0 0 -4.86221e-11 -1.26862e-11 -1.26862e-11 0 -8.66736e-28 0 -1.81967e-19 0 0 
1491.86 -1.21982e-13 0 0 0 0 0 -4.86221e-11 -1.26862e-11 -1.26862e-11 0 -8.66736e-28 0 -1.81981e-19 0 0 
1491.97 -1.21982e-13 0 0 0 0 0 -4.86221e-11 -1.26862e-11 -1.26862e-11 0 -8.66736e-28 0 -1.81994e-19 0 0 
1492.08 -1.21982e-13 0 0 0 0 0 -4.86221e-11 -1.26862e-11 -1.26862e-11 0 -8.66736e-28 0 -1.82007e-19 0 0 
1492.19 -1.21982e-13 0 0 0 0 0 -4.86221e-11 -1.26862e-11 -1.26862e-11 0 -8.66736e-28 0 -1.8202e-19 0 0 
1492.29 -1.21982e-13 0 0 0 0 0 -4.86221e-11 -1.26862e-11 -1.26862e-11 0 -8.66736e-28 0 -1.82033e-19 0 0 
1492.4 -1.21982e-13 0 0 0 0 0 -4.86221e-11 -1.26862e-11 -1.26862e-11 0 -8.66736e-28 0 -1.82046e-19 0 0 
1492.5 -1.21982e-13 0 0 0 0 0 -4.86221e-11 -1.26862e-11 -1.26862e-11 0 -8.66736e-28 0 -1.82059e-19 0 0 
1492.61 -1.21982e-13 0 0 0 0 0 -4.86221e-11 -1.26862e-11 -1.26862e-11 0 -8.66736e-28 0 -1.82072e-19 0 0 
1492.71 -1.21982e-13 0 0 0 0 0 -4.86221e-11 -1.26862e-11 -1.26862e-11 0 -8.66736e-28 0 -1.82084e-19 0 0 
1492.82 -1.21982e-13 0 0 0 0 0 -4.86221e-11 -1.26862e-11 -1.26862e-11 0 -8.66736e-28 0 -1.82097e-19 0 0 
1492.92 -1.21982e-13 0 0 0 0 0 -4.86221e-11 -1.26862e-11 -1.26862e-11 0 -8.66736e-28 0 -1.82109e-19 0 0 
1493.02 -1.21982e-13 0 0 0 0 0 -4.86221e-11 -1.26862e-11 -1.26862e-11 0 -8.66736e-28 0 -1.82122e-19 0 0 
1493.12 -1.21982e-13 0 0 0 0 0 -4.86221e-11 -1.26862e-11 -1.26862e-11 0 -8.66736e-28 0 -1.82134e-19 0 0 
1493.22 -1.21982e-13 0 0 0 0 0 -4.86221e-11 -1.26862e-11 -1.26862e-11 0 -8.66736e-28 0 -1.82146e-19 0 0 
1493.32 -1.21982e-13 0 0 0 0 0 -4.86221e-11 -1.26862e-11 -1.26862e-11 0 -8.66736e-28 0 -1.82159e-19 0 0 
1493.42 -1.21982e-13 0 0 0 0 0 -4.86221e-11 -1.26862e-11 -1.26862e-11 0 -8.66736e-28 0 -1.82171e-19 0 0 
1493.52 -1.21982e-13 0 0 0 0 0 -4.86221e-11 -1.26862e-11 -1.26862e-11 0 -8.66736e-28 0 -1.82183e-19 0 0 
1493.62 -1.21982e-13 0 0 0 0 0 -4.86221e-11 -1.26862e-11 -1.26862e-11 0 -8.66736e-28 0 -1.82195e-19 0 0 
1493.71 -1.21982e-13 0 0 0 0 0 -4.86221e-11 -1.26862e-11 -1.26862e-11 0 -8.66736e-28 0 -1.82206e-19 0 0 
1493.81 -1.21982e-13 0 0 0 0 0 -4.86221e-11 -1.26862e-11 -1.26862e-11 0 -8.66736e-28 0 -1.82218e-19 0 0 
1493.91 -1.21982e-13 0 0 0 0 0 -4.86221e-11 -1.26862e-11 -1.26862e-11 0 -8.66736e-28 0 -1.8223e-19 0 0 
1494 -1.21982e-13 0 0 0 0 0 -4.86221e-11 -1.26862e-11 -1.26862e-11 0 -8.66736e-28 0 -1.82242e-19 0 0 
1494.1 -1.21982e-13 0 0 0 0 0 -4.86221e-11 -1.26862e-11 -1.26862e-11 0 -8.66736e-28 0 -1.82253e-19 0 0 
1494.19 -1.21982e-13 0 0 0 0 0 -4.86221e-11 -1.26862e-11 -1.26862e-11 0 -8.66736e-28 0 -1.82265e-19 0 0 
1494.28 -1.21982e-13 0 0 0 0 0 -4.86221e-11 -1.26862e-11 -1.26862e-11 0 -8.66736e-28 0 -1.82276e-19 0 0 
1494.37 -1.21982e-13 0 0 0 0 0 -4.86221e-11 -1.26862e-11 -1.26862e-11 0 -8.66736e-28 0 -1.82287e-19 0 0 
1494.47 -1.21982e-13 0 0 0 0 0 -4.86221e-11 -1.26862e-11 -1.26862e-11 0 -8.66736e-28 0 -1.82298e-19 0 0 
1494.56 -1.21982e-13 0 0 0 0 0 -4.86221e-11 -1.26862e-11 -1.26862e-11 0 -8.66736e-28 0 -1.8231e-19 0 0 
1494.65 -1.21982e-13 0 0 0 0 0 -4.86221e-11 -1.26862e-11 -1.26862e-11 0 -8.66736e-28 0 -1.82321e-19 0 0 
1494.74 -1.21982e-13 0 0 0 0 0 -4.86221e-11 -1.26862e-11 -1.26862e-11 0 -8.66736e-28 0 -1.82332e-19 0 0 
1494.83 -1.21982e-13 0 0 0 0 0 -4.86221e-11 -1.26862e-11 -1.26862e-11 0 -8.66736e-28 0 -1.82343e-19 0 0 
1494.92 -1.21982e-13 0 0 0 0 0 -4.86221e-11 -1.26862e-11 -1.26862e-11 0 -8.66736e-28 0 -1.82354e-19 0 0 
1495.01 -1.21982e-13 0 0 0 0 0 -4.86221e-11 -1.26862e-11 -1.26862e-11 0 -8.66736e-28 0 -1.82364e-19 0 0 
1495.09 -1.21982e-13 0 0 0 0 0 -4.86221e-11 -1.26862e-11 -1.26862e-11 0 -8.66736e-28 0 -1.82375e-19 0 0 
1495.18 -1.21982e-13 0 0 0 0 0 -4.86221e-11 -1.26862e-11 -1.26862e-11 0 -8.66736e-28 0 -1.82386e-19 0 0 
1495.27 -1.21982e-13 0 0 0 0 0 -4.86221e-11 -1.26862e-11 -1.26862e-11 0 -8.66736e-28 0 -1.82396e-19 0 0 
1495.35 -1.21982e-13 0 0 0 0 0 -4.86221e-11 -1.26862e-11 -1.26862e-11 0 -8.66736e-28 0 -1.82407e-19 0 0 
1495.44 -1.21982e-13 0 0 0 0 0 -4.86221e-11 -1.26862e-11 -1.26862e-11 0 -8.66736e-28 0 -1.82417e-19 0 0 
1495.53 -1.21982e-13 0 0 0 0 0 -4.86221e-11 -1.26862e-11 -1.26862e-11 0 -8.66736e-28 0 -1.82428e-19 0 0 
1495.61 -1.21982e-13 0 0 0 0 0 -4.86221e-11 -1.26862e-11 -1.26862e-11 0 -8.66736e-28 0 -1.82438e-19 0 0 
1495.69 -1.21982e-13 0 0 0 0 0 -4.86221e-11 -1.26862e-11 -1.26862e-11 0 -8.66736e-28 0 -1.82448e-19 0 0 
1495.78 -1.21982e-13 0 0 0 0 0 -4.86221e-11 -1.26862e-11 -1.26862e-11 0 -8.66736e-28 0 -1.82458e-19 0 0 
1495.86 -1.21982e-13 0 0 0 0 0 -4.86221e-11 -1.26862e-11 -1.26862e-11 0 -8.66736e-28 0 -1.82468e-19 0 0 
1495.94 -1.21982e-13 0 0 0 0 0 -4.86221e-11 -1.26862e-11 -1.26862e-11 0 -8.66736e-28 0 -1.82478e-19 0 0 
1496.02 -1.21982e-13 0 0 0 0 0 -4.86221e-11 -1.26862e-11 -1.26862e-11 0 -8.66736e-28 0 -1.82488e-19 0 0 
1496.11 -1.21982e-13 0 0 0 0 0 -4.86221e-11 -1.26862e-11 -1.26862e-11 0 -8.66736e-28 0 -1.82498e-19 0 0 
1496.19 -1.21982e-13 0 0 0 0 0 -4.86221e-11 -1.26862e-11 -1.26862e-11 0 -8.66736e-28 0 -1.82508e-19 0 0 
1496.27 -1.21982e-13 0 0 0 0 0 -4.86221e-11 -1.26862e-11 -1.26862e-11 0 -8.66736e-28 0 -1.82518e-19 0 0 
1496.35 -1.21982e-13 0 0 0 0 0 -4.86221e-11 -1.26862e-11 -1.26862e-11 0 -8.66736e-28 0 -1.82528e-19 0 0 
1496.42 -1.21982e-13 0 0 0 0 0 -4.86221e-11 -1.26862e-11 -1.26862e-11 0 -8.66736e-28 0 -1.82537e-19 0 0 
1496.5 -1.21982e-13 0 0 0 0 0 -4.86221e-11 -1.26862e-11 -1.26862e-11 0 -8.66736e-28 0 -1.82547e-19 0 0 
1496.58 -1.21982e-13 0 0 0 0 0 -4.86221e-11 -1.26862e-11 -1.26862e-11 0 -8.66736e-28 0 -1.82556e-19 0 0 
1496.66 -1.21982e-13 0 0 0 0 0 -4.86221e-11 -1.26862e-11 -1.26862e-11 0 -8.66736e-28 0 -1.82566e-19 0 0 
1496.74 -1.21982e-13 0 0 0 0 0 -4.86221e-11 -1.26862e-11 -1.26862e-11 0 -8.66736e-28 0 -1.82575e-19 0 0 
1496.81 -1.21982e-13 0 0 0 0 0 -4.86221e-11 -1.26862e-11 -1.26862e-11 0 -8.66736e-28 0 -1.82584e-19 0 0 
1496.89 -1.21982e-13 0 0 0 0 0 -4.86221e-11 -1.26862e-11 -1.26862e-11 0 -8.66736e-28 0 -1.82594e-19 0 0 
1496.96 -1.21982e-13 0 0 0 0 0 -4.86221e-11 -1.26862e-11 -1.26862e-11 0 -8.66736e-28 0 -1.82603e-19 0 0 
1497.04 -1.21982e-13 0 0 0 0 0 -4.86221e-11 -1.26862e-11 -1.26862e-11 0 -8.66736e-28 0 -1.82612e-19 0 0 
1497.11 -1.21982e-13 0 0 0 0 0 -4.86221e-11 -1.26862e-11 -1.26862e-11 0 -8.66736e-28 0 -1.82621e-19 0 0 
1497.19 -1.21982e-13 0 0 0 0 0 -4.86221e-11 -1.26862e-11 -1.26862e-11 0 -8.66736e-28 0 -1.8263e-19 0 0 
1497.26 -1.21982e-13 0 0 0 0 0 -4.86221e-11 -1.26862e-11 -1.26862e-11 0 -8.66736e-28 0 -1.82639e-19 0 0 
1497.33 -1.21982e-13 0 0 0 0 0 -4.86221e-11 -1.26862e-11 -1.26862e-11 0 -8.66736e-28 0 -1.82648e-19 0 0 
1497.41 -1.21982e-13 0 0 0 0 0 -4.86221e-11 -1.26862e-11 -1.26862e-11 0 -8.66736e-28 0 -1.82657e-19 0 0 
1497.48 -1.21982e-13 0 0 0 0 0 -4.86221e-11 -1.26862e-11 -1.26862e-11 0 -8.66736e-28 0 -1.82666e-19 0 0 
1497.55 -1.21982e-13 0 0 0 0 0 -4.86221e-11 -1.26862e-11 -1.26862e-11 0 -8.66736e-28 0 -1.82674e-19 0 0 
1497.62 -1.21982e-13 0 0 0 0 0 -4.86221e-11 -1.26862e-11 -1.26862e-11 0 -8.66736e-28 0 -1.82683e-19 0 0 
1497.69 -1.21982e-13 0 0 0 0 0 -4.86221e-11 -1.26862e-11 -1.26862e-11 0 -8.66736e-28 0 -1.82692e-19 0 0 
1497.76 -1.21982e-13 0 0 0 0 0 -4.86221e-11 -1.26862e-11 -1.26862e-11 0 -8.66736e-28 0 -1.827e-19 0 0 
1497.83 -1.21982e-13 0 0 0 0 0 -4.86221e-11 -1.26862e-11 -1.26862e-11 0 -8.66736e-28 0 -1.82709e-19 0 0 
1497.9 -1.21982e-13 0 0 0 0 0 -4.86221e-11 -1.26862e-11 -1.26862e-11 0 -8.66736e-28 0 -1.82717e-19 0 0 
1497.97 -1.21982e-13 0 0 0 0 0 -4.86221e-11 -1.26862e-11 -1.26862e-11 0 -8.66736e-28 0 -1.82726e-19 0 0 
1498.04 -1.21982e-13 0 0 0 0 0 -4.86221e-11 -1.26862e-11 -1.26862e-11 0 -8.66736e-28 0 -1.82734e-19 0 0 
1498.11 -1.21982e-13 0 0 0 0 0 -4.86221e-11 -1.26862e-11 -1.26862e-11 0 -8.66736e-28 0 -1.82742e-19 0 0 
1498.17 -1.21982e-13 0 0 0 0 0 -4.86221e-11 -1.26862e-11 -1.26862e-11 0 -8.66736e-28 0 -1.8275e-19 0 0 
1498.24 -1.21982e-13 0 0 0 0 0 -4.86221e-11 -1.26862e-11 -1.26862e-11 0 -8.66736e-28 0 -1.82759e-19 0 0 
1498.31 -1.21982e-13 0 0 0 0 0 -4.86221e-11 -1.26862e-11 -1.26862e-11 0 -8.66736e-28 0 -1.82767e-19 0 0 
1498.37 -1.21982e-13 0 0 0 0 0 -4.86221e-11 -1.26862e-11 -1.26862e-11 0 -8.66736e-28 0 -1.82775e-19 0 0 
1498.44 -1.21982e-13 0 0 0 0 0 -4.86221e-11 -1.26862e-11 -1.26862e-11 0 -8.66736e-28 0 -1.82783e-19 0 0 
1498.5 -1.21982e-13 0 0 0 0 0 -4.86221e-11 -1.26862e-11 -1.26862e-11 0 -8.66736e-28 0 -1.82791e-19 0 0 
1498.57 -1.21982e-13 0 0 0 0 0 -4.86221e-11 -1.26862e-11 -1.26862e-11 0 -8.66736e-28 0 -1.82799e-19 0 0 
1498.63 -1.21982e-13 0 0 0 0 0 -4.86221e-11 -1.26862e-11 -1.26862e-11 0 -8.66736e-28 0 -1.82806e-19 0 0 
1498.7 -1.21982e-13 0 0 0 0 0 -4.86221e-11 -1.26862e-11 -1.26862e-11 0 -8.66736e-28 0 -1.82814e-19 0 0 
1498.76 -1.21982e-13 0 0 0 0 0 -4.86221e-11 -1.26862e-11 -1.26862e-11 0 -8.66736e-28 0 -1.82822e-19 0 0 
1498.82 -1.21982e-13 0 0 0 0 0 -4.86221e-11 -1.26862e-11 -1.26862e-11 0 -8.66736e-28 0 -1.8283e-19 0 0 
1498.89 -1.21982e-13 0 0 0 0 0 -4.86221e-11 -1.26862e-11 -1.26862e-11 0 -8.66736e-28 0 -1.82837e-19 0 0 
1498.95 -1.21982e-13 0 0 0 0 0 -4.86221e-11 -1.26862e-11 -1.26862e-11 0 -8.66736e-28 0 -1.82845e-19 0 0 
1499.01 -1.21982e-13 0 0 0 0 0 -4.86221e-11 -1.26862e-11 -1.26862e-11 0 -8.66736e-28 0 -1.82853e-19 0 0 
1499.07 -1.21982e-13 0 0 0 0 0 -4.86221e-11 -1.26862e-11 -1.26862e-11 0 -8.66736e-28 0 -1.8286e-19 0 0 
1499.13 -1.21982e-13 0 0 0 0 0 -4.86221e-11 -1.26862e-11 -1.26862e-11 0 -8.66736e-28 0 -1.82867e-19 0 0 
1499.19 -1.21982e-13 0 0 0 0 0 -4.86221e-11 -1.26862e-11 -1.26862e-11 0 -8.66736e-28 0 -1.82875e-19 0 0 
1499.25 -1.21982e-13 0 0 0 0 0 -4.86221e-11 -1.26862e-11 -1.26862e-11 0 -8.66736e-28 0 -1.82882e-19 0 0 
1499.31 -1.21982e-13 0 0 0 0 0 -4.86221e-11 -1.26862e-11 -1.26862e-11 0 -8.66736e-28 0 -1.82889e-19 0 0 
1499.37 -1.21982e-13 0 0 0 0 0 -4.86221e-11 -1.26862e-11 -1.26862e-11 0 -8.66736e-28 0 -1.82897e-19 0 0 
1499.43 -1.21982e-13 0 0 0 0 0 -4.86221e-11 -1.26862e-11 -1.26862e-11 0 -8.66736e-28 0 -1.82904e-19 0 0 
1499.49 -1.21982e-13 0 0 0 0 0 -4.86221e-11 -1.26862e-11 -1.26862e-11 0 -8.66736e-28 0 -1.82911e-19 0 0 
1499.55 -1.21982e-13 0 0 0 0 0 -4.86221e-11 -1.26862e-11 -1.26862e-11 0 -8.66736e-28 0 -1.82918e-19 0 0 
1499.61 -1.21982e-13 0 0 0 0 0 -4.86221e-11 -1.26862e-11 -1.26862e-11 0 -8.66736e-28 0 -1.82925e-19 0 0 
1499.66 -1.21982e-13 0 0 0 0 0 -4.86221e-11 -1.26862e-11 -1.26862e-11 0 -8.66736e-28 0 -1.82932e-19 0 0 
1499.72 -1.21982e-13 0 0 0 0 0 -4.86221e-11 -1.26862e-11 -1.26862e-11 0 -8.66736e-28 0 -1.82939e-19 0 0 
1499.78 -1.21982e-13 0 0 0 0 0 -4.86221e-11 -1.26862e-11 -1.26862e-11 0 -8.66736e-28 0 -1.82946e-19 0 0 
1499.83 -1.21982e-13 0 0 0 0 0 -4.86221e-11 -1.26862e-11 -1.26862e-11 0 -8.66736e-28 0 -1.82953e-19 0 0 
1499.89 -1.21982e-13 0 0 0 0 0 -4.86221e-11 -1.26862e-11 -1.26862e-11 0 -8.66736e-28 0 -1.8296e-19 0 0 
1499.94 -1.21982e-13 0 0 0 0 0 -4.86221e-11 -1.26862e-11 -1.26862e-11 0 -8.66736e-28 0 -1.82967e-19 0 0 
1500 -1.21982e-13 0 0 0 0 0 -4.86221e-11 -1.26862e-11 -1.26862e-11 0 -8.66736e-28 0 -1.82973e-19 0 0 
1500 0.0064042 -0.0104271 -0.0104271 0 0 0 -4.86216e-11 -4.44119 -4.44119 0 6.95383e-16 0 -1.82973e-19 0 0 
1500.06 0.0064042 -0.0104271 -0.0104271 0 0 0 -4.86216e-11 -4.44119 -4.44119 0 6.95383e-16 0 3.47516e-13 0 0 
1500.11 0.0064042 -0.0104271 -0.0104271 0 0 0 -4.86216e-11 -4.44119 -4.44119 0 6.95383e-16 0 6.95032e-13 0 0 
1500.17 0.0064042 -0.0104271 -0.0104271 0 0 0 -4.86207e-11 -4.44119 -4.44119 0 6.95383e-16 0 1.04255e-12 0 0 
1500.22 0.0064042 -0.0104271 -0.0104271 0 0 0 -4.8618e-11 -4.44119 -4.44119 0 6.95383e-16 0 1.39006e-12 0 0 
1500.28 0.0064042 -0.0104271 -0.0104271 0 0 0 -4.86151e-11 -4.44119 -4.44119 0 6.95383e-16 0 1.73758e-12 0 0 
1500.33 0.0064042 -0.0104271 -0.0104271 0 0 0 -4.8614e-11 -4.44119 -4.44119 0 6.95383e-16 0 2.0851e-12 0 0 
1500.39 0.0064042 -0.0104271 -0.0104271 0 0 0 -4.86129e-11 -4.44119 -4.44119 0 6.95383e-16 0 2.43261e-12 0 0 
1500.44 0.0064042 -0.0104271 -0.0104271 0 0 0 -4.86082e-11 -4.44119 -4.44119 0 6.95383e-16 0 2.78013e-12 0 0 
1500.5 0.0064042 -0.0104271 -0.0104271 0 0 0 -4.86047e-11 -4.44119 -4.44119 0 6.95383e-16 0 3.12764e-12 0 0 
1500.55 0.0064042 -0.0104271 -0.0104271 0 0 0 -4.86058e-11 -4.44119 -4.44119 0 6.95383e-16 0 3.47516e-12 0 0 
1500.61 0.0064042 -0.0104271 -0.0104271 0 0 0 -4.86022e-11 -4.44119 -4.44119 0 6.95383e-16 0 3.82268e-12 0 0 
1500.66 0.0064042 -0.0104271 -0.0104271 0 0 0 -4.85929e-11 -4.44119 -4.44119 0 6.95383e-16 0 4.17019e-12 0 0 
1500.72 0.0064042 -0.0104271 -0.0104271 0 0 0 -4.85905e-11 -4.44119 -4.44119 0 6.95383e-16 0 4.51771e-12 0 0 
1500.77 0.0064042 -0.0104271 -0.0104271 0 0 0 -4.85834e-11 -4.44119 -4.44119 0 6.95383e-16 0 4.86522e-12 0 0 
1500.83 0.0064042 -0.0104271 -0.0104271 0 0 0 -4.85811e-11 -4.44119 -4.44119 0 6.95383e-16 0 5.21274e-12 0 0 
1500.88 0.0064042 -0.0104271 -0.0104271 0 0 0 -4.85763e-11 -4.44119 -4.44119 0 6.95383e-16 0 5.56026e-12 0 0 
1500.94 0.0064042 -0.0104271 -0.0104271 0 0 0 -4.85691e-11 -4.44119 -4.44119 0 6.95383e-16 0 5.90777e-12 0 0 
1500.99 0.0064042 -0.0104271 -0.0104271 0 0 0 -4.85669e-11 -4.44119 -4.44119 0 6.95383e-16 0 6.25529e-12 0 0 
1501.05 0.0064042 -0.0104271 -0.0104271 0 0 0 -4.85574e-11 -4.44119 -4.44119 0 6.95383e-16 0 6.6028e-12 0 0 
1501.1 0.0064042 -0.0104271 -0.0104271 0 0 0 -4.85503e-11 -4.44119 -4.44119 0 6.95383e-16 0 6.95032e-12 0 0 
1501.16 0.0064042 -0.0104271 -0.0104271 0 0 0 -4.85361e-11 -4.44119 -4.44119 0 6.95383e-16 0 7.29784e-12 0 0 
1501.21 0.0064042 -0.0104271 -0.0104271 0 0 0 -4.85265e-11 -4.44119 -4.44119 0 6.95383e-16 0 7.64535e-12 0 0 
1501.27 0.0064042 -0.0104271 -0.0104271 0 0 0 -4.85265e-11 -4.44119 -4.44119 0 6.95383e-16 0 7.99287e-12 0 0 
1501.32 0.0064042 -0.0104271 -0.0104271 0 0 0 -4.85314e-11 -4.44119 -4.44119 0 6.95383e-16 0 8.34038e-12 0 0 
1501.38 0.0064042 -0.0104271 -0.0104271 0 0 0 -4.85267e-11 -4.44119 -4.44119 0 6.95383e-16 0 8.6879e-12 0 0 
1501.43 0.0064042 -0.0104271 -0.0104271 0 0 0 -4.8503e-11 -4.44119 -4.44119 0 6.95383e-16 0 9.03542e-12 0 0 
1501.49 0.0064042 -0.0104271 -0.0104271 0 0 0 -4.84888e-11 -4.44119 -4.44119 0 6.95383e-16 0 9.38293e-12 0 0 
1501.54 0.0064042 -0.0104271 -0.0104271 0 0 0 -4.84841e-11 -4.44119 -4.44119 0 6.95383e-16 0 9.73045e-12 0 0 
1501.6 0.0064042 -0.0104271 -0.0104271 0 0 0 -4.84841e-11 -4.44119 -4.44119 0 6.95383e-16 0 1.0078e-11 0 0 
1501.65 0.0064042 -0.0104271 -0.0104271 0 0 0 -4.84888e-11 -4.44119 -4.44119 0 6.95383e-16 0 1.04255e-11 0 0 
1501.71 0.0064042 -0.0104271 -0.0104271 0 0 0 -4.84748e-11 -4.44119 -4.44119 0 6.95383e-16 0 1.0773e-11 0 0 
1501.76 0.0064042 -0.0104271 -0.0104271 0 0 0 -4.84512e-11 -4.44119 -4.44119 0 6.95383e-16 0 1.11205e-11 0 0 
1501.82 0.0064042 -0.0104271 -0.0104271 0 0 0 -4.8437e-11 -4.44119 -4.44119 0 6.95383e-16 0 1.1468e-11 0 0 
1501.87 0.0064042 -0.0104271 -0.0104271 0 0 0 -4.8437e-11 -4.44119 -4.44119 0 6.95383e-16 0 1.18155e-11 0 0 
1501.93 0.0064042 -0.0104271 -0.0104271 0 0 0 -4.84228e-11 -4.44119 -4.44119 0 6.95383e-16 0 1.21631e-11 0 0 
1501.98 0.0064042 -0.0104271 -0.0104271 0 0 0 -4.84133e-11 -4.44119 -4.44119 0 6.95383e-16 0 1.25106e-11 0 0 
1502.04 0.0064042 -0.0104271 -0.0104271 0 0 0 -4.84133e-11 -4.44119 -4.44119 0 6.95383e-16 0 1.28581e-11 0 0 
1502.09 0.0064042 -0.0104271 -0.0104271 0 0 0 -4.83993e-11 -4.44119 -4.44119 0 6.95383e-16 0 1.32056e-11 0 0 
1502.15 0.0064042 -0.0104271 -0.0104271 0 0 0 -4.83993e-11 -4.44119 -4.44119 0 6.95383e-16 0 1.35531e-11 0 0 
1502.2 0.0064042 -0.0104271 -0.0104271 0 0 0 -4.83993e-11 -4.44119 -4.44119 0 6.95383e-16 0 1.39006e-11 0 0 
1502.26 0.0064042 -0.0104271 -0.0104271 0 0 0 -4.83851e-11 -4.44119 -4.44119 0 6.95383e-16 0 1.42482e-11 0 0 
1502.31 0.0064042 -0.0104271 -0.0104271 0 0 0 -4.83662e-11 -4.44119 -4.44119 0 6.95383e-16 0 1.45957e-11 0 0 
1502.37 0.0064042 -0.0104271 -0.0104271 0 0 0 -4.83473e-11 -4.44119 -4.44119 0 6.95383e-16 0 1.49432e-11 0 0 
1502.42 0.0064042 -0.0104271 -0.0104271 0 0 0 -4.83567e-11 -4.44119 -4.44119 0 6.95383e-16 0 1.52907e-11 0 0 
1502.48 0.0064042 -0.0104271 -0.0104271 0 0 0 -4.83378e-11 -4.44119 -4.44119 0 6.95383e-16 0 1.56382e-11 0 0 
1502.53 0.0064042 -0.0104271 -0.0104271 0 0 0 -4.83e-11 -4.44119 -4.44119 0 6.95383e-16 0 1.59857e-11 0 0 
1502.59 0.0064042 -0.0104271 -0.0104271 0 0 0 -4.82907e-11 -4.44119 -4.44119 0 6.95383e-16 0 1.63333e-11 0 0 
1502.64 0.0064042 -0.0104271 -0.0104271 0 0 0 -4.82907e-11 -4.44119 -4.44119 0 6.95383e-16 0 1.66808e-11 0 0 
1502.7 0.0064042 -0.0104271 -0.0104271 0 0 0 -4.82907e-11 -4.44119 -4.44119 0 6.95383e-16 0 1.70283e-11 0 0 
1502.75 0.0064042 -0.0104271 -0.0104271 0 0 0 -4.82907e-11 -4.44119 -4.44119 0 6.95383e-16 0 1.73758e-11 0 0 
1502.81 0.0064042 -0.0104271 -0.0104271 0 0 0 -4.82907e-11 -4.44119 -4.44119 0 6.95383e-16 0 1.77233e-11 0 0 
1502.86 0.0064042 -0.0104271 -0.0104271 0 0 0 -4.82814e-11 -4.44119 -4.44119 0 6.95383e-16 0 1.80708e-11 0 0 
1502.92 0.0064042 -0.0104271 -0.0104271 0 0 0 -4.82718e-11 -4.44119 -4.44119 0 6.95383e-16 0 1.84183e-11 0 0 
1502.97 0.0064042 -0.0104271 -0.0104271 0 0 0 -4.82527e-11 -4.44119 -4.44119 0 6.95383e-16 0 1.87659e-11 0 0 
1503.03 0.0064042 -0.0104271 -0.0104271 0 0 0 -4.82339e-11 -4.44119 -4.44119 0 6.95383e-16 0 1.91134e-11 0 0 
1503.08 0.0064042 -0.0104271 -0.0104271 0 0 0 -4.8215e-11 -4.44119 -4.44119 0 6.95383e-16 0 1.94609e-11 0 0 
1503.14 0.0064042 -0.0104271 -0.0104271 0 0 0 -4.82054e-11 -4.44119 -4.44119 0 6.95383e-16 0 1.98084e-11 0 0 
1503.19 0.0064042 -0.0104271 -0.0104271 0 0 0 -4.81961e-11 -4.44119 -4.44119 0 6.95383e-16 0 2.01559e-11 0 0 
1503.25 0.0064042 -0.0104271 -0.0104271 0 0 0 -4.81679e-11 -4.44119 -4.44119 0 6.95383e-16 0 2.05034e-11 0 0 
1503.3 0.0064042 -0.0104271 -0.0104271 0 0 0 -4.81302e-11 -4.44119 -4.44119 0 6.95383e-16 0 2.0851e-11 0 0 
1503.36 0.0064042 -0.0104271 -0.0104271 0 0 0 -4.81302e-11 -4.44119 -4.44119 0 6.95383e-16 0 2.11985e-11 0 0 
1503.41 0.0064042 -0.0104271 -0.0104271 0 0 0 -4.81584e-11 -4.44119 -4.44119 0 6.95383e-16 0 2.1546e-11 0 0 
1503.47 0.0064042 -0.0104271 -0.0104271 0 0 0 -4.81488e-11 -4.44119 -4.44119 0 6.95383e-16 0 2.18935e-11 0 0 
1503.52 0.0064042 -0.0104271 -0.0104271 0 0 0 -4.81206e-11 -4.44119 -4.44119 0 6.95383e-16 0 2.2241e-11 0 0 
1503.58 0.0064042 -0.0104271 -0.0104271 0 0 0 -4.81113e-11 -4.44119 -4.44119 0 6.95383e-16 0 2.25885e-11 0 0 
1503.63 0.0064042 -0.0104271 -0.0104271 0 0 0 -4.80829e-11 -4.44119 -4.44119 0 6.95383e-16 0 2.29361e-11 0 0 
1503.69 0.0064042 -0.0104271 -0.0104271 0 0 0 -4.80544e-11 -4.44119 -4.44119 0 6.95383e-16 0 2.32836e-11 0 0 
1503.74 0.0064042 -0.0104271 -0.0104271 0 0 0 -4.80167e-11 -4.44119 -4.44119 0 6.95383e-16 0 2.36311e-11 0 0 
1503.8 0.0064042 -0.0104271 -0.0104271 0 0 0 -4.79978e-11 -4.44119 -4.44119 0 6.95383e-16 0 2.39786e-11 0 0 
1503.85 0.0064042 -0.0104271 -0.0104271 0 0 0 -4.80262e-11 -4.44119 -4.44119 0 6.95383e-16 0 2.43261e-11 0 0 
1503.91 0.0064042 -0.0104271 -0.0104271 0 0 0 -4.80169e-11 -4.44119 -4.44119 0 6.95383e-16 0 2.46736e-11 0 0 
1503.96 0.0064042 -0.0104271 -0.0104271 0 0 0 -4.7998e-11 -4.44119 -4.44119 0 6.95383e-16 0 2.50212e-11 0 0 
1504.02 0.0064042 -0.0104271 -0.0104271 0 0 0 -4.79885e-11 -4.44119 -4.44119 0 6.95383e-16 0 2.53687e-11 0 0 
1504.07 0.0064042 -0.0104271 -0.0104271 0 0 0 -4.79885e-11 -4.44119 -4.44119 0 6.95383e-16 0 2.57162e-11 0 0 
1504.13 0.0064042 -0.0104271 -0.0104271 0 0 0 -4.7998e-11 -4.44119 -4.44119 0 6.95383e-16 0 2.60637e-11 0 0 
1504.19 0.0064042 -0.0104271 -0.0104271 0 0 0 -4.79885e-11 -4.44119 -4.44119 0 6.95383e-16 0 2.64112e-11 0 0 
1504.24 0.0064042 -0.0104271 -0.0104271 0 0 0 -4.79885e-11 -4.44119 -4.44119 0 6.95383e-16 0 2.67587e-11 0 0 
1504.3 0.0064042 -0.0104271 -0.0104271 0 0 0 -4.79508e-11 -4.44119 -4.44119 0 6.95383e-16 0 2.71062e-11 0 0 
1504.35 0.0064042 -0.0104271 -0.0104271 0 0 0 -4.7913e-11 -4.44119 -4.44119 0 6.95383e-16 0 2.74538e-11 0 0 
1504.41 0.0064042 -0.0104271 -0.0104271 0 0 0 -4.79035e-11 -4.44119 -4.44119 0 6.95383e-16 0 2.78013e-11 0 0 
1504.46 0.0064042 -0.0104271 -0.0104271 0 0 0 -4.78655e-11 -4.44119 -4.44119 0 6.95383e-16 0 2.81488e-11 0 0 
1504.52 0.0064042 -0.0104271 -0.0104271 0 0 0 -4.78277e-11 -4.44119 -4.44119 0 6.95383e-16 0 2.84963e-11 0 0 
1504.57 0.0064042 -0.0104271 -0.0104271 0 0 0 -4.77711e-11 -4.44119 -4.44119 0 6.95383e-16 0 2.88438e-11 0 0 
1504.63 0.0064042 -0.0104271 -0.0104271 0 0 0 -4.77145e-11 -4.44119 -4.44119 0 6.95383e-16 0 2.91913e-11 0 0 
1504.68 0.0064042 -0.0104271 -0.0104271 0 0 0 -4.76956e-11 -4.44119 -4.44119 0 6.95383e-16 0 2.95389e-11 0 0 
1504.74 0.0064042 -0.0104271 -0.0104271 0 0 0 -4.76768e-11 -4.44119 -4.44119 0 6.95383e-16 0 2.98864e-11 0 0 
1504.79 0.0064042 -0.0104271 -0.0104271 0 0 0 -4.76768e-11 -4.44119 -4.44119 0 6.95383e-16 0 3.02339e-11 0 0 
1504.85 0.0064042 -0.0104271 -0.0104271 0 0 0 -4.76768e-11 -4.44119 -4.44119 0 6.95383e-16 0 3.05814e-11 0 0 
1504.9 0.0064042 -0.0104271 -0.0104271 0 0 0 -4.76768e-11 -4.44119 -4.44119 0 6.95383e-16 0 3.09289e-11 0 0 
1504.96 0.0064042 -0.0104271 -0.0104271 0 0 0 -4.7639e-11 -4.44119 -4.44119 0 6.95383e-16 0 3.12764e-11 0 0 
1505.01 0.0064042 -0.0104271 -0.0104271 0 0 0 -4.76013e-11 -4.44119 -4.44119 0 6.95383e-16 0 3.1624e-11 0 0 
1505.07 0.0064042 -0.0104271 -0.0104271 0 0 0 -4.76013e-11 -4.44119 -4.44119 0 6.95383e-16 0 3.19715e-11 0 0 
1505.12 0.0064042 -0.0104271 -0.0104271 0 0 0 -4.75635e-11 -4.44119 -4.44119 0 6.95383e-16 0 3.2319e-11 0 0 
1505.18 0.0064042 -0.0104271 -0.0104271 0 0 0 -4.75258e-11 -4.44119 -4.44119 0 6.95383e-16 0 3.26665e-11 0 0 
1505.23 0.0064042 -0.0104271 -0.0104271 0 0 0 -4.7488e-11 -4.44119 -4.44119 0 6.95383e-16 0 3.3014e-11 0 0 
1505.29 0.0064042 -0.0104271 -0.0104271 0 0 0 -4.74691e-11 -4.44119 -4.44119 0 6.95383e-16 0 3.33615e-11 0 0 
1505.34 0.0064042 -0.0104271 -0.0104271 0 0 0 -4.74125e-11 -4.44119 -4.44119 0 6.95383e-16 0 3.37091e-11 0 0 
1505.4 0.0064042 -0.0104271 -0.0104271 0 0 0 -4.73559e-11 -4.44119 -4.44119 0 6.95383e-16 0 3.40566e-11 0 0 
1505.45 0.0064042 -0.0104271 -0.0104271 0 0 0 -4.73559e-11 -4.44119 -4.44119 0 6.95383e-16 0 3.44041e-11 0 0 
1505.51 0.0064042 -0.0104271 -0.0104271 0 0 0 -4.73559e-11 -4.44119 -4.44119 0 6.95383e-16 0 3.47516e-11 0 0 
1505.56 0.0064042 -0.0104271 -0.0104271 0 0 0 -4.73181e-11 -4.44119 -4.44119 0 6.95383e-16 0 3.50991e-11 0 0 
1505.62 0.0064042 -0.0104271 -0.0104271 0 0 0 -4.72804e-11 -4.44119 -4.44119 0 6.95383e-16 0 3.54466e-11 0 0 
1505.67 0.0064042 -0.0104271 -0.0104271 0 0 0 -4.72236e-11 -4.44119 -4.44119 0 6.95383e-16 0 3.57941e-11 0 0 
1505.73 0.0064042 -0.0104271 -0.0104271 0 0 0 -4.71478e-11 -4.44119 -4.44119 0 6.95383e-16 0 3.61417e-11 0 0 
1505.78 0.0064042 -0.0104271 -0.0104271 0 0 0 -4.71101e-11 -4.44119 -4.44119 0 6.95383e-16 0 3.64892e-11 0 0 
1505.84 0.0064042 -0.0104271 -0.0104271 0 0 0 -4.70912e-11 -4.44119 -4.44119 0 6.95383e-16 0 3.68367e-11 0 0 
1505.89 0.0064042 -0.0104271 -0.0104271 0 0 0 -4.70535e-11 -4.44119 -4.44119 0 6.95383e-16 0 3.71842e-11 0 0 
1505.95 0.0064042 -0.0104271 -0.0104271 0 0 0 -4.69969e-11 -4.44119 -4.44119 0 6.95383e-16 0 3.75317e-11 0 0 
1506 0.0064042 -0.0104271 -0.0104271 0 0 0 -4.70157e-11 -4.44119 -4.44119 0 6.95383e-16 0 3.78792e-11 0 0 
1506.06 0.0064042 -0.0104271 -0.0104271 0 0 0 -4.70346e-11 -4.44119 -4.44119 0 6.95383e-16 0 3.82268e-11 0 0 
1506.11 0.0064042 -0.0104271 -0.0104271 0 0 0 -4.69402e-11 -4.44119 -4.44119 0 6.95383e-16 0 3.85743e-11 0 0 
1506.17 0.0064042 -0.0104271 -0.0104271 0 0 0 -4.69025e-11 -4.44119 -4.44119 0 6.95383e-16 0 3.89218e-11 0 0 
1506.22 0.0064042 -0.0104271 -0.0104271 0 0 0 -4.69402e-11 -4.44119 -4.44119 0 6.95383e-16 0 3.92693e-11 0 0 
1506.28 0.0064042 -0.0104271 -0.0104271 0 0 0 -4.69214e-11 -4.44119 -4.44119 0 6.95383e-16 0 3.96168e-11 0 0 
1506.33 0.0064042 -0.0104271 -0.0104271 0 0 0 -4.68836e-11 -4.44119 -4.44119 0 6.95383e-16 0 3.99643e-11 0 0 
1506.39 0.0064042 -0.0104271 -0.0104271 0 0 0 -4.68836e-11 -4.44119 -4.44119 0 6.95383e-16 0 4.03119e-11 0 0 
1506.44 0.0064042 -0.0104271 -0.0104271 0 0 0 -4.68459e-11 -4.44119 -4.44119 0 6.95383e-16 0 4.06594e-11 0 0 
1506.5 0.0064042 -0.0104271 -0.0104271 0 0 0 -4.6827e-11 -4.44119 -4.44119 0 6.95383e-16 0 4.10069e-11 0 0 
1506.55 0.0064042 -0.0104271 -0.0104271 0 0 0 -4.6827e-11 -4.44119 -4.44119 0 6.95383e-16 0 4.13544e-11 0 0 
1506.61 0.0064042 -0.0104271 -0.0104271 0 0 0 -4.67704e-11 -4.44119 -4.44119 0 6.95383e-16 0 4.17019e-11 0 0 
1506.66 0.0064042 -0.0104271 -0.0104271 0 0 0 -4.67515e-11 -4.44119 -4.44119 0 6.95383e-16 0 4.20494e-11 0 0 
1506.72 0.0064042 -0.0104271 -0.0104271 0 0 0 -4.67137e-11 -4.44119 -4.44119 0 6.95383e-16 0 4.2397e-11 0 0 
1506.77 0.0064042 -0.0104271 -0.0104271 0 0 0 -4.66571e-11 -4.44119 -4.44119 0 6.95383e-16 0 4.27445e-11 0 0 
1506.83 0.0064042 -0.0104271 -0.0104271 0 0 0 -4.65814e-11 -4.44119 -4.44119 0 6.95383e-16 0 4.3092e-11 0 0 
1506.88 0.0064042 -0.0104271 -0.0104271 0 0 0 -4.65246e-11 -4.44119 -4.44119 0 6.95383e-16 0 4.34395e-11 0 0 
1506.94 0.0064042 -0.0104271 -0.0104271 0 0 0 -4.65246e-11 -4.44119 -4.44119 0 6.95383e-16 0 4.3787e-11 0 0 
1506.99 0.0064042 -0.0104271 -0.0104271 0 0 0 -4.65625e-11 -4.44119 -4.44119 0 6.95383e-16 0 4.41345e-11 0 0 
1507.05 0.0064042 -0.0104271 -0.0104271 0 0 0 -4.65248e-11 -4.44119 -4.44119 0 6.95383e-16 0 4.4482e-11 0 0 
1507.1 0.0064042 -0.0104271 -0.0104271 0 0 0 -4.64679e-11 -4.44119 -4.44119 0 6.95383e-16 0 4.48296e-11 0 0 
1507.16 0.0064042 -0.0104271 -0.0104271 0 0 0 -4.64679e-11 -4.44119 -4.44119 0 6.95383e-16 0 4.51771e-11 0 0 
1507.21 0.0064042 -0.0104271 -0.0104271 0 0 0 -4.64491e-11 -4.44119 -4.44119 0 6.95383e-16 0 4.55246e-11 0 0 
1507.27 0.0064042 -0.0104271 -0.0104271 0 0 0 -4.63924e-11 -4.44119 -4.44119 0 6.95383e-16 0 4.58721e-11 0 0 
1507.32 0.0064042 -0.0104271 -0.0104271 0 0 0 -4.6317e-11 -4.44119 -4.44119 0 6.95383e-16 0 4.62196e-11 0 0 
1507.38 0.0064042 -0.0104271 -0.0104271 0 0 0 -4.62415e-11 -4.44119 -4.44119 0 6.95383e-16 0 4.65671e-11 0 0 
1507.43 0.0064042 -0.0104271 -0.0104271 0 0 0 -4.62603e-11 -4.44119 -4.44119 0 6.95383e-16 0 4.69147e-11 0 0 
1507.49 0.0064042 -0.0104271 -0.0104271 0 0 0 -4.62603e-11 -4.44119 -4.44119 0 6.95383e-16 0 4.72622e-11 0 0 
1507.54 0.0064042 -0.0104271 -0.0104271 0 0 0 -4.61282e-11 -4.44119 -4.44119 0 6.95383e-16 0 4.76097e-11 0 0 
1507.6 0.0064042 -0.0104271 -0.0104271 0 0 0 -4.60905e-11 -4.44119 -4.44119 0 6.95383e-16 0 4.79572e-11 0 0 
1507.65 0.0064042 -0.0104271 -0.0104271 0 0 0 -4.60905e-11 -4.44119 -4.44119 0 6.95383e-16 0 4.83047e-11 0 0 
1507.71 0.0064042 -0.0104271 -0.0104271 0 0 0 -4.60716e-11 -4.44119 -4.44119 0 6.95383e-16 0 4.86522e-11 0 0 
1507.76 0.0064042 -0.0104271 -0.0104271 0 0 0 -4.59581e-11 -4.44119 -4.44119 0 6.95383e-16 0 4.89998e-11 0 0 
1507.82 0.0064042 -0.0104271 -0.0104271 0 0 0 -4.59204e-11 -4.44119 -4.44119 0 6.95383e-16 0 4.93473e-11 0 0 
1507.87 0.0064042 -0.0104271 -0.0104271 0 0 0 -4.59204e-11 -4.44119 -4.44119 0 6.95383e-16 0 4.96948e-11 0 0 
1507.93 0.0064042 -0.0104271 -0.0104271 0 0 0 -4.58258e-11 -4.44119 -4.44119 0 6.95383e-16 0 5.00423e-11 0 0 
1507.98 0.0064042 -0.0104271 -0.0104271 0 0 0 -4.57125e-11 -4.44119 -4.44119 0 6.95383e-16 0 5.03898e-11 0 0 
1508.04 0.0064042 -0.0104271 -0.0104271 0 0 0 -4.56559e-11 -4.44119 -4.44119 0 6.95383e-16 0 5.07373e-11 0 0 
1508.09 0.0064042 -0.0104271 -0.0104271 0 0 0 -4.57503e-11 -4.44119 -4.44119 0 6.95383e-16 0 5.10849e-11 0 0 
1508.15 0.0064042 -0.0104271 -0.0104271 0 0 0 -4.5788e-11 -4.44119 -4.44119 0 6.95383e-16 0 5.14324e-11 0 0 
1508.2 0.0064042 -0.0104271 -0.0104271 0 0 0 -4.57314e-11 -4.44119 -4.44119 0 6.95383e-16 0 5.17799e-11 0 0 
1508.26 0.0064042 -0.0104271 -0.0104271 0 0 0 -4.56559e-11 -4.44119 -4.44119 0 6.95383e-16 0 5.21274e-11 0 0 
1508.31 0.0064042 -0.0104271 -0.0104271 0 0 0 -4.55804e-11 -4.44119 -4.44119 0 6.95383e-16 0 5.24749e-11 0 0 
1508.37 0.0064042 -0.0104271 -0.0104271 0 0 0 -4.55616e-11 -4.44119 -4.44119 0 6.95383e-16 0 5.28224e-11 0 0 
1508.43 0.0064042 -0.0104271 -0.0104271 0 0 0 -4.55049e-11 -4.44119 -4.44119 0 6.95383e-16 0 5.31699e-11 0 0 
1508.48 0.0064042 -0.0104271 -0.0104271 0 0 0 -4.54861e-11 -4.44119 -4.44119 0 6.95383e-16 0 5.35175e-11 0 0 
1508.54 0.0064042 -0.0104271 -0.0104271 0 0 0 -4.54861e-11 -4.44119 -4.44119 0 6.95383e-16 0 5.3865e-11 0 0 
1508.59 0.0064042 -0.0104271 -0.0104271 0 0 0 -4.54106e-11 -4.44119 -4.44119 0 6.95383e-16 0 5.42125e-11 0 0 
1508.65 0.0064042 -0.0104271 -0.0104271 0 0 0 -4.54106e-11 -4.44119 -4.44119 0 6.95383e-16 0 5.456e-11 0 0 
1508.7 0.0064042 -0.0104271 -0.0104271 0 0 0 -4.53351e-11 -4.44119 -4.44119 0 6.95383e-16 0 5.49075e-11 0 0 
1508.76 0.0064042 -0.0104271 -0.0104271 0 0 0 -4.51839e-11 -4.44119 -4.44119 0 6.95383e-16 0 5.5255e-11 0 0 
1508.81 0.0064042 -0.0104271 -0.0104271 0 0 0 -4.50893e-11 -4.44119 -4.44119 0 6.95383e-16 0 5.56026e-11 0 0 
1508.87 0.0064042 -0.0104271 -0.0104271 0 0 0 -4.50515e-11 -4.44119 -4.44119 0 6.95383e-16 0 5.59501e-11 0 0 
1508.92 0.0064042 -0.0104271 -0.0104271 0 0 0 -4.50515e-11 -4.44119 -4.44119 0 6.95383e-16 0 5.62976e-11 0 0 
1508.98 0.0064042 -0.0104271 -0.0104271 0 0 0 -4.50138e-11 -4.44119 -4.44119 0 6.95383e-16 0 5.66451e-11 0 0 
1509.03 0.0064042 -0.0104271 -0.0104271 0 0 0 -4.49005e-11 -4.44119 -4.44119 0 6.95383e-16 0 5.69926e-11 0 0 
1509.09 0.0064042 -0.0104271 -0.0104271 0 0 0 -4.4976e-11 -4.44119 -4.44119 0 6.95383e-16 0 5.73401e-11 0 0 
1509.14 0.0064042 -0.0104271 -0.0104271 0 0 0 -4.50515e-11 -4.44119 -4.44119 0 6.95383e-16 0 5.76877e-11 0 0 
1509.2 0.0064042 -0.0104271 -0.0104271 0 0 0 -4.50138e-11 -4.44119 -4.44119 0 6.95383e-16 0 5.80352e-11 0 0 
1509.25 0.0064042 -0.0104271 -0.0104271 0 0 0 -4.50138e-11 -4.44119 -4.44119 0 6.95383e-16 0 5.83827e-11 0 0 
1509.31 0.0064042 -0.0104271 -0.0104271 0 0 0 -4.49005e-11 -4.44119 -4.44119 0 6.95383e-16 0 5.87302e-11 0 0 
1509.36 0.0064042 -0.0104271 -0.0104271 0 0 0 -4.48628e-11 -4.44119 -4.44119 0 6.95383e-16 0 5.90777e-11 0 0 
1509.42 0.0064042 -0.0104271 -0.0104271 0 0 0 -4.4825e-11 -4.44119 -4.44119 0 6.95383e-16 0 5.94252e-11 0 0 
1509.47 0.0064042 -0.0104271 -0.0104271 0 0 0 -4.47118e-11 -4.44119 -4.44119 0 6.95383e-16 0 5.97728e-11 0 0 
1509.53 0.0064042 -0.0104271 -0.0104271 0 0 0 -4.46363e-11 -4.44119 -4.44119 0 6.95383e-16 0 6.01203e-11 0 0 
1509.58 0.0064042 -0.0104271 -0.0104271 0 0 0 -4.45608e-11 -4.44119 -4.44119 0 6.95383e-16 0 6.04678e-11 0 0 
1509.64 0.0064042 -0.0104271 -0.0104271 0 0 0 -4.45231e-11 -4.44119 -4.44119 0 6.95383e-16 0 6.08153e-11 0 0 
1509.69 0.0064042 -0.0104271 -0.0104271 0 0 0 -4.44096e-11 -4.44119 -4.44119 0 6.95383e-16 0 6.11628e-11 0 0 
1509.75 0.0064042 -0.0104271 -0.0104271 0 0 0 -4.42961e-11 -4.44119 -4.44119 0 6.95383e-16 0 6.15103e-11 0 0 
1509.8 0.0064042 -0.0104271 -0.0104271 0 0 0 -4.43716e-11 -4.44119 -4.44119 0 6.95383e-16 0 6.18578e-11 0 0 
1509.86 0.0064042 -0.0104271 -0.0104271 0 0 0 -4.43716e-11 -4.44119 -4.44119 0 6.95383e-16 0 6.22054e-11 0 0 
1509.91 0.0064042 -0.0104271 -0.0104271 0 0 0 -4.42206e-11 -4.44119 -4.44119 0 6.95383e-16 0 6.25529e-11 0 0 
1509.97 0.0064042 -0.0104271 -0.0104271 0 0 0 -4.41074e-11 -4.44119 -4.44119 0 6.95383e-16 0 6.29004e-11 0 0 
1510.02 0.0064042 -0.0104271 -0.0104271 0 0 0 -4.40696e-11 -4.44119 -4.44119 0 6.95383e-16 0 6.32479e-11 0 0 
1510.08 0.0064042 -0.0104271 -0.0104271 0 0 0 -4.40319e-11 -4.44119 -4.44119 0 6.95383e-16 0 6.35954e-11 0 0 
1510.13 0.0064042 -0.0104271 -0.0104271 0 0 0 -4.39941e-11 -4.44119 -4.44119 0 6.95383e-16 0 6.39429e-11 0 0 
1510.19 0.0064042 -0.0104271 -0.0104271 0 0 0 -4.39941e-11 -4.44119 -4.44119 0 6.95383e-16 0 6.42905e-11 0 0 
1510.24 0.0064042 -0.0104271 -0.0104271 0 0 0 -4.40319e-11 -4.44119 -4.44119 0 6.95383e-16 0 6.4638e-11 0 0 
1510.3 0.0064042 -0.0104271 -0.0104271 0 0 0 -4.39941e-11 -4.44119 -4.44119 0 6.95383e-16 0 6.49855e-11 0 0 
1510.35 0.0064042 -0.0104271 -0.0104271 0 0 0 -4.38809e-11 -4.44119 -4.44119 0 6.95383e-16 0 6.5333e-11 0 0 
1510.41 0.0064042 -0.0104271 -0.0104271 0 0 0 -4.38809e-11 -4.44119 -4.44119 0 6.95383e-16 0 6.56805e-11 0 0 
1510.46 0.0064042 -0.0104271 -0.0104271 0 0 0 -4.39186e-11 -4.44119 -4.44119 0 6.95383e-16 0 6.6028e-11 0 0 
1510.52 0.0064042 -0.0104271 -0.0104271 0 0 0 -4.38809e-11 -4.44119 -4.44119 0 6.95383e-16 0 6.63756e-11 0 0 
1510.57 0.0064042 -0.0104271 -0.0104271 0 0 0 -4.38432e-11 -4.44119 -4.44119 0 6.95383e-16 0 6.67231e-11 0 0 
1510.63 0.0064042 -0.0104271 -0.0104271 0 0 0 -4.37297e-11 -4.44119 -4.44119 0 6.95383e-16 0 6.70706e-11 0 0 
1510.68 0.0064042 -0.0104271 -0.0104271 0 0 0 -4.3654e-11 -4.44119 -4.44119 0 6.95383e-16 0 6.74181e-11 0 0 
1510.74 0.0064042 -0.0104271 -0.0104271 0 0 0 -4.3654e-11 -4.44119 -4.44119 0 6.95383e-16 0 6.77656e-11 0 0 
1510.79 0.0064042 -0.0104271 -0.0104271 0 0 0 -4.35407e-11 -4.44119 -4.44119 0 6.95383e-16 0 6.81131e-11 0 0 
1510.85 0.0064042 -0.0104271 -0.0104271 0 0 0 -4.34652e-11 -4.44119 -4.44119 0 6.95383e-16 0 6.84607e-11 0 0 
1510.9 0.0064042 -0.0104271 -0.0104271 0 0 0 -4.35785e-11 -4.44119 -4.44119 0 6.95383e-16 0 6.88082e-11 0 0 
1510.96 0.0064042 -0.0104271 -0.0104271 0 0 0 -4.36917e-11 -4.44119 -4.44119 0 6.95383e-16 0 6.91557e-11 0 0 
1511.01 0.0064042 -0.0104271 -0.0104271 0 0 0 -4.3654e-11 -4.44119 -4.44119 0 6.95383e-16 0 6.95032e-11 0 0 
1511.07 0.0064042 -0.0104271 -0.0104271 0 0 0 -4.36162e-11 -4.44119 -4.44119 0 6.95383e-16 0 6.98507e-11 0 0 
1511.12 0.0064042 -0.0104271 -0.0104271 0 0 0 -4.35407e-11 -4.44119 -4.44119 0 6.95383e-16 0 7.01982e-11 0 0 
1511.18 0.0064042 -0.0104271 -0.0104271 0 0 0 -4.34275e-11 -4.44119 -4.44119 0 6.95383e-16 0 7.05457e-11 0 0 
1511.23 0.0064042 -0.0104271 -0.0104271 0 0 0 -4.34275e-11 -4.44119 -4.44119 0 6.95383e-16 0 7.08933e-11 0 0 
1511.29 0.0064042 -0.0104271 -0.0104271 0 0 0 -4.34652e-11 -4.44119 -4.44119 0 6.95383e-16 0 7.12408e-11 0 0 
1511.34 0.0064042 -0.0104271 -0.0104271 0 0 0 -4.33897e-11 -4.44119 -4.44119 0 6.95383e-16 0 7.15883e-11 0 0 
1511.4 0.0064042 -0.0104271 -0.0104271 0 0 0 -4.3352e-11 -4.44119 -4.44119 0 6.95383e-16 0 7.19358e-11 0 0 
1511.45 0.0064042 -0.0104271 -0.0104271 0 0 0 -4.33142e-11 -4.44119 -4.44119 0 6.95383e-16 0 7.22833e-11 0 0 
1511.51 0.0064042 -0.0104271 -0.0104271 0 0 0 -4.32387e-11 -4.44119 -4.44119 0 6.95383e-16 0 7.26308e-11 0 0 
1511.56 0.0064042 -0.0104271 -0.0104271 0 0 0 -4.3163e-11 -4.44119 -4.44119 0 6.95383e-16 0 7.29784e-11 0 0 
1511.62 0.0064042 -0.0104271 -0.0104271 0 0 0 -4.30496e-11 -4.44119 -4.44119 0 6.95383e-16 0 7.33259e-11 0 0 
1511.67 0.0064042 -0.0104271 -0.0104271 0 0 0 -4.29741e-11 -4.44119 -4.44119 0 6.95383e-16 0 7.36734e-11 0 0 
1511.73 0.0064042 -0.0104271 -0.0104271 0 0 0 -4.28608e-11 -4.44119 -4.44119 0 6.95383e-16 0 7.40209e-11 0 0 
1511.78 0.0064042 -0.0104271 -0.0104271 0 0 0 -4.28231e-11 -4.44119 -4.44119 0 6.95383e-16 0 7.43684e-11 0 0 
1511.84 0.0064042 -0.0104271 -0.0104271 0 0 0 -4.28231e-11 -4.44119 -4.44119 0 6.95383e-16 0 7.47159e-11 0 0 
1511.89 0.0064042 -0.0104271 -0.0104271 0 0 0 -4.27476e-11 -4.44119 -4.44119 0 6.95383e-16 0 7.50635e-11 0 0 
1511.95 0.0064042 -0.0104271 -0.0104271 0 0 0 -4.26343e-11 -4.44119 -4.44119 0 6.95383e-16 0 7.5411e-11 0 0 
1512 0.0064042 -0.0104271 -0.0104271 0 0 0 -4.24831e-11 -4.44119 -4.44119 0 6.95383e-16 0 7.57585e-11 0 0 
1512.06 0.0064042 -0.0104271 -0.0104271 0 0 0 -4.23697e-11 -4.44119 -4.44119 0 6.95383e-16 0 7.6106e-11 0 0 
1512.11 0.0064042 -0.0104271 -0.0104271 0 0 0 -4.24076e-11 -4.44119 -4.44119 0 6.95383e-16 0 7.64535e-11 0 0 
1512.17 0.0064042 -0.0104271 -0.0104271 0 0 0 -4.24076e-11 -4.44119 -4.44119 0 6.95383e-16 0 7.6801e-11 0 0 
1512.22 0.0064042 -0.0104271 -0.0104271 0 0 0 -4.22564e-11 -4.44119 -4.44119 0 6.95383e-16 0 7.71486e-11 0 0 
1512.28 0.0064042 -0.0104271 -0.0104271 0 0 0 -4.21432e-11 -4.44119 -4.44119 0 6.95383e-16 0 7.74961e-11 0 0 
1512.33 0.0064042 -0.0104271 -0.0104271 0 0 0 -4.21054e-11 -4.44119 -4.44119 0 6.95383e-16 0 7.78436e-11 0 0 
1512.39 0.0064042 -0.0104271 -0.0104271 0 0 0 -4.21054e-11 -4.44119 -4.44119 0 6.95383e-16 0 7.81911e-11 0 0 
1512.44 0.0064042 -0.0104271 -0.0104271 0 0 0 -4.20677e-11 -4.44119 -4.44119 0 6.95383e-16 0 7.85386e-11 0 0 
1512.5 0.0064042 -0.0104271 -0.0104271 0 0 0 -4.19544e-11 -4.44119 -4.44119 0 6.95383e-16 0 7.88861e-11 0 0 
1512.56 0.0064042 -0.0104271 -0.0104271 0 0 0 -4.19167e-11 -4.44119 -4.44119 0 6.95383e-16 0 7.92337e-11 0 0 
1512.61 0.0064042 -0.0104271 -0.0104271 0 0 0 -4.19167e-11 -4.44119 -4.44119 0 6.95383e-16 0 7.95812e-11 0 0 
1512.67 0.0064042 -0.0104271 -0.0104271 0 0 0 -4.18789e-11 -4.44119 -4.44119 0 6.95383e-16 0 7.99287e-11 0 0 
1512.72 0.0064042 -0.0104271 -0.0104271 0 0 0 -4.18412e-11 -4.44119 -4.44119 0 6.95383e-16 0 8.02762e-11 0 0 
1512.78 0.0064042 -0.0104271 -0.0104271 0 0 0 -4.18034e-11 -4.44119 -4.44119 0 6.95383e-16 0 8.06237e-11 0 0 
1512.83 0.0064042 -0.0104271 -0.0104271 0 0 0 -4.17655e-11 -4.44119 -4.44119 0 6.95383e-16 0 8.09712e-11 0 0 
1512.89 0.0064042 -0.0104271 -0.0104271 0 0 0 -4.16898e-11 -4.44119 -4.44119 0 6.95383e-16 0 8.13187e-11 0 0 
1512.94 0.0064042 -0.0104271 -0.0104271 0 0 0 -4.1652e-11 -4.44119 -4.44119 0 6.95383e-16 0 8.16663e-11 0 0 
1513 0.0064042 -0.0104271 -0.0104271 0 0 0 -4.1652e-11 -4.44119 -4.44119 0 6.95383e-16 0 8.20138e-11 0 0 
1513.05 0.0064042 -0.0104271 -0.0104271 0 0 0 -4.15765e-11 -4.44119 -4.44119 0 6.95383e-16 0 8.23613e-11 0 0 
1513.11 0.0064042 -0.0104271 -0.0104271 0 0 0 -4.14633e-11 -4.44119 -4.44119 0 6.95383e-16 0 8.27088e-11 0 0 
1513.16 0.0064042 -0.0104271 -0.0104271 0 0 0 -4.13878e-11 -4.44119 -4.44119 0 6.95383e-16 0 8.30563e-11 0 0 
1513.22 0.0064042 -0.0104271 -0.0104271 0 0 0 -4.12368e-11 -4.44119 -4.44119 0 6.95383e-16 0 8.34038e-11 0 0 
1513.27 0.0064042 -0.0104271 -0.0104271 0 0 0 -4.12745e-11 -4.44119 -4.44119 0 6.95383e-16 0 8.37514e-11 0 0 
1513.33 0.0064042 -0.0104271 -0.0104271 0 0 0 -4.14255e-11 -4.44119 -4.44119 0 6.95383e-16 0 8.40989e-11 0 0 
1513.38 0.0064042 -0.0104271 -0.0104271 0 0 0 -4.13878e-11 -4.44119 -4.44119 0 6.95383e-16 0 8.44464e-11 0 0 
1513.44 0.0064042 -0.0104271 -0.0104271 0 0 0 -4.12745e-11 -4.44119 -4.44119 0 6.95383e-16 0 8.47939e-11 0 0 
1513.49 0.0064042 -0.0104271 -0.0104271 0 0 0 -4.12368e-11 -4.44119 -4.44119 0 6.95383e-16 0 8.51414e-11 0 0 
1513.55 0.0064042 -0.0104271 -0.0104271 0 0 0 -4.11613e-11 -4.44119 -4.44119 0 6.95383e-16 0 8.54889e-11 0 0 
1513.6 0.0064042 -0.0104271 -0.0104271 0 0 0 -4.11235e-11 -4.44119 -4.44119 0 6.95383e-16 0 8.58365e-11 0 0 
1513.66 0.0064042 -0.0104271 -0.0104271 0 0 0 -4.09346e-11 -4.44119 -4.44119 0 6.95383e-16 0 8.6184e-11 0 0 
1513.71 0.0064042 -0.0104271 -0.0104271 0 0 0 -4.07456e-11 -4.44119 -4.44119 0 6.95383e-16 0 8.65315e-11 0 0 
1513.77 0.0064042 -0.0104271 -0.0104271 0 0 0 -4.08211e-11 -4.44119 -4.44119 0 6.95383e-16 0 8.6879e-11 0 0 
1513.82 0.0064042 -0.0104271 -0.0104271 0 0 0 -4.07456e-11 -4.44119 -4.44119 0 6.95383e-16 0 8.72265e-11 0 0 
1513.88 0.0064042 -0.0104271 -0.0104271 0 0 0 -4.06324e-11 -4.44119 -4.44119 0 6.95383e-16 0 8.7574e-11 0 0 
1513.93 0.0064042 -0.0104271 -0.0104271 0 0 0 -4.04814e-11 -4.44119 -4.44119 0 6.95383e-16 0 8.79216e-11 0 0 
1513.99 0.0064042 -0.0104271 -0.0104271 0 0 0 -4.04059e-11 -4.44119 -4.44119 0 6.95383e-16 0 8.82691e-11 0 0 
1514.04 0.0064042 -0.0104271 -0.0104271 0 0 0 -4.03302e-11 -4.44119 -4.44119 0 6.95383e-16 0 8.86166e-11 0 0 
1514.1 0.0064042 -0.0104271 -0.0104271 0 0 0 -4.02924e-11 -4.44119 -4.44119 0 6.95383e-16 0 8.89641e-11 0 0 
1514.15 0.0064042 -0.0104271 -0.0104271 0 0 0 -4.02924e-11 -4.44119 -4.44119 0 6.95383e-16 0 8.93116e-11 0 0 
1514.21 0.0064042 -0.0104271 -0.0104271 0 0 0 -4.02167e-11 -4.44119 -4.44119 0 6.95383e-16 0 8.96591e-11 0 0 
1514.26 0.0064042 -0.0104271 -0.0104271 0 0 0 -4.0179e-11 -4.44119 -4.44119 0 6.95383e-16 0 9.00066e-11 0 0 
1514.32 0.0064042 -0.0104271 -0.0104271 0 0 0 -3.99902e-11 -4.44119 -4.44119 0 6.95383e-16 0 9.03542e-11 0 0 
1514.37 0.0064042 -0.0104271 -0.0104271 0 0 0 -3.99525e-11 -4.44119 -4.44119 0 6.95383e-16 0 9.07017e-11 0 0 
1514.43 0.0064042 -0.0104271 -0.0104271 0 0 0 -3.99525e-11 -4.44119 -4.44119 0 6.95383e-16 0 9.10492e-11 0 0 
1514.48 0.0064042 -0.0104271 -0.0104271 0 0 0 -3.98392e-11 -4.44119 -4.44119 0 6.95383e-16 0 9.13967e-11 0 0 
1514.54 0.0064042 -0.0104271 -0.0104271 0 0 0 -3.97637e-11 -4.44119 -4.44119 0 6.95383e-16 0 9.17442e-11 0 0 
1514.59 0.0064042 -0.0104271 -0.0104271 0 0 0 -3.96125e-11 -4.44119 -4.44119 0 6.95383e-16 0 9.20917e-11 0 0 
1514.65 0.0064042 -0.0104271 -0.0104271 0 0 0 -3.94613e-11 -4.44119 -4.44119 0 6.95383e-16 0 9.24393e-11 0 0 
1514.7 0.0064042 -0.0104271 -0.0104271 0 0 0 -3.93103e-11 -4.44119 -4.44119 0 6.95383e-16 0 9.27868e-11 0 0 
1514.76 0.0064042 -0.0104271 -0.0104271 0 0 0 -3.92348e-11 -4.44119 -4.44119 0 6.95383e-16 0 9.31343e-11 0 0 
1514.81 0.0064042 -0.0104271 -0.0104271 0 0 0 -3.90081e-11 -4.44119 -4.44119 0 6.95383e-16 0 9.34818e-11 0 0 
1514.87 0.0064042 -0.0104271 -0.0104271 0 0 0 -3.88569e-11 -4.44119 -4.44119 0 6.95383e-16 0 9.38293e-11 0 0 
1514.92 0.0064042 -0.0104271 -0.0104271 0 0 0 -3.88192e-11 -4.44119 -4.44119 0 6.95383e-16 0 9.41768e-11 0 0 
1514.98 0.0064042 -0.0104271 -0.0104271 0 0 0 -3.86682e-11 -4.44119 -4.44119 0 6.95383e-16 0 9.45244e-11 0 0 
1515.03 0.0064042 -0.0104271 -0.0104271 0 0 0 -3.86304e-11 -4.44119 -4.44119 0 6.95383e-16 0 9.48719e-11 0 0 
1515.09 0.0064042 -0.0104271 -0.0104271 0 0 0 -3.84037e-11 -4.44119 -4.44119 0 6.95383e-16 0 9.52194e-11 0 0 
1515.14 0.0064042 -0.0104271 -0.0104271 0 0 0 -3.8177e-11 -4.44119 -4.44119 0 6.95383e-16 0 9.55669e-11 0 0 
1515.2 0.0064042 -0.0104271 -0.0104271 0 0 0 -3.82527e-11 -4.44119 -4.44119 0 6.95383e-16 0 9.59144e-11 0 0 
1515.25 0.0064042 -0.0104271 -0.0104271 0 0 0 -3.82527e-11 -4.44119 -4.44119 0 6.95383e-16 0 9.62619e-11 0 0 
1515.31 0.0064042 -0.0104271 -0.0104271 0 0 0 -3.8177e-11 -4.44119 -4.44119 0 6.95383e-16 0 9.66095e-11 0 0 
1515.36 0.0064042 -0.0104271 -0.0104271 0 0 0 -3.8026e-11 -4.44119 -4.44119 0 6.95383e-16 0 9.6957e-11 0 0 
1515.42 0.0064042 -0.0104271 -0.0104271 0 0 0 -3.79128e-11 -4.44119 -4.44119 0 6.95383e-16 0 9.73045e-11 0 0 
1515.47 0.0064042 -0.0104271 -0.0104271 0 0 0 -3.79505e-11 -4.44119 -4.44119 0 6.95383e-16 0 9.7652e-11 0 0 
1515.53 0.0064042 -0.0104271 -0.0104271 0 0 0 -3.78373e-11 -4.44119 -4.44119 0 6.95383e-16 0 9.79995e-11 0 0 
1515.58 0.0064042 -0.0104271 -0.0104271 0 0 0 -3.7724e-11 -4.44119 -4.44119 0 6.95383e-16 0 9.8347e-11 0 0 
1515.64 0.0064042 -0.0104271 -0.0104271 0 0 0 -3.76863e-11 -4.44119 -4.44119 0 6.95383e-16 0 9.86945e-11 0 0 
1515.69 0.0064042 -0.0104271 -0.0104271 0 0 0 -3.76863e-11 -4.44119 -4.44119 0 6.95383e-16 0 9.90421e-11 0 0 
1515.75 0.0064042 -0.0104271 -0.0104271 0 0 0 -3.76483e-11 -4.44119 -4.44119 0 6.95383e-16 0 9.93896e-11 0 0 
1515.8 0.0064042 -0.0104271 -0.0104271 0 0 0 -3.74594e-11 -4.44119 -4.44119 0 6.95383e-16 0 9.97371e-11 0 0 
1515.86 0.0064042 -0.0104271 -0.0104271 0 0 0 -3.72329e-11 -4.44119 -4.44119 0 6.95383e-16 0 1.00085e-10 0 0 
1515.91 0.0064042 -0.0104271 -0.0104271 0 0 0 -3.72706e-11 -4.44119 -4.44119 0 6.95383e-16 0 1.00432e-10 0 0 
1515.97 0.0064042 -0.0104271 -0.0104271 0 0 0 -3.73839e-11 -4.44119 -4.44119 0 6.95383e-16 0 1.0078e-10 0 0 
1516.02 0.0064042 -0.0104271 -0.0104271 0 0 0 -3.72706e-11 -4.44119 -4.44119 0 6.95383e-16 0 1.01127e-10 0 0 
1516.08 0.0064042 -0.0104271 -0.0104271 0 0 0 -3.71574e-11 -4.44119 -4.44119 0 6.95383e-16 0 1.01475e-10 0 0 
1516.13 0.0064042 -0.0104271 -0.0104271 0 0 0 -3.70062e-11 -4.44119 -4.44119 0 6.95383e-16 0 1.01822e-10 0 0 
1516.19 0.0064042 -0.0104271 -0.0104271 0 0 0 -3.6855e-11 -4.44119 -4.44119 0 6.95383e-16 0 1.0217e-10 0 0 
1516.24 0.0064042 -0.0104271 -0.0104271 0 0 0 -3.68172e-11 -4.44119 -4.44119 0 6.95383e-16 0 1.02517e-10 0 0 
1516.3 0.0064042 -0.0104271 -0.0104271 0 0 0 -3.67417e-11 -4.44119 -4.44119 0 6.95383e-16 0 1.02865e-10 0 0 
1516.35 0.0064042 -0.0104271 -0.0104271 0 0 0 -3.6704e-11 -4.44119 -4.44119 0 6.95383e-16 0 1.03212e-10 0 0 
1516.41 0.0064042 -0.0104271 -0.0104271 0 0 0 -3.6704e-11 -4.44119 -4.44119 0 6.95383e-16 0 1.0356e-10 0 0 
1516.46 0.0064042 -0.0104271 -0.0104271 0 0 0 -3.67417e-11 -4.44119 -4.44119 0 6.95383e-16 0 1.03907e-10 0 0 
1516.52 0.0064042 -0.0104271 -0.0104271 0 0 0 -3.6704e-11 -4.44119 -4.44119 0 6.95383e-16 0 1.04255e-10 0 0 
1516.57 0.0064042 -0.0104271 -0.0104271 0 0 0 -3.65907e-11 -4.44119 -4.44119 0 6.95383e-16 0 1.04602e-10 0 0 
1516.63 0.0064042 -0.0104271 -0.0104271 0 0 0 -3.66285e-11 -4.44119 -4.44119 0 6.95383e-16 0 1.0495e-10 0 0 
1516.69 0.0064042 -0.0104271 -0.0104271 0 0 0 -3.66285e-11 -4.44119 -4.44119 0 6.95383e-16 0 1.05297e-10 0 0 
1516.74 0.0064042 -0.0104271 -0.0104271 0 0 0 -3.64397e-11 -4.44119 -4.44119 0 6.95383e-16 0 1.05645e-10 0 0 
1516.8 0.0064042 -0.0104271 -0.0104271 0 0 0 -3.62887e-11 -4.44119 -4.44119 0 6.95383e-16 0 1.05992e-10 0 0 
1516.85 0.0064042 -0.0104271 -0.0104271 0 0 0 -3.62887e-11 -4.44119 -4.44119 0 6.95383e-16 0 1.0634e-10 0 0 
1516.91 0.0064042 -0.0104271 -0.0104271 0 0 0 -3.63642e-11 -4.44119 -4.44119 0 6.95383e-16 0 1.06687e-10 0 0 
1516.96 0.0064042 -0.0104271 -0.0104271 0 0 0 -3.64775e-11 -4.44119 -4.44119 0 6.95383e-16 0 1.07035e-10 0 0 
1517.02 0.0064042 -0.0104271 -0.0104271 0 0 0 -3.65152e-11 -4.44119 -4.44119 0 6.95383e-16 0 1.07382e-10 0 0 
1517.07 0.0064042 -0.0104271 -0.0104271 0 0 0 -3.6364e-11 -4.44119 -4.44119 0 6.95383e-16 0 1.0773e-10 0 0 
1517.13 0.0064042 -0.0104271 -0.0104271 0 0 0 -3.62885e-11 -4.44119 -4.44119 0 6.95383e-16 0 1.08077e-10 0 0 
1517.18 0.0064042 -0.0104271 -0.0104271 0 0 0 -3.62508e-11 -4.44119 -4.44119 0 6.95383e-16 0 1.08425e-10 0 0 
1517.24 0.0064042 -0.0104271 -0.0104271 0 0 0 -3.61373e-11 -4.44119 -4.44119 0 6.95383e-16 0 1.08773e-10 0 0 
1517.29 0.0064042 -0.0104271 -0.0104271 0 0 0 -3.60618e-11 -4.44119 -4.44119 0 6.95383e-16 0 1.0912e-10 0 0 
1517.35 0.0064042 -0.0104271 -0.0104271 0 0 0 -3.60241e-11 -4.44119 -4.44119 0 6.95383e-16 0 1.09468e-10 0 0 
1517.4 0.0064042 -0.0104271 -0.0104271 0 0 0 -3.60241e-11 -4.44119 -4.44119 0 6.95383e-16 0 1.09815e-10 0 0 
1517.46 0.0064042 -0.0104271 -0.0104271 0 0 0 -3.58731e-11 -4.44119 -4.44119 0 6.95383e-16 0 1.10163e-10 0 0 
1517.51 0.0064042 -0.0104271 -0.0104271 0 0 0 -3.56843e-11 -4.44119 -4.44119 0 6.95383e-16 0 1.1051e-10 0 0 
1517.57 0.0064042 -0.0104271 -0.0104271 0 0 0 -3.56088e-11 -4.44119 -4.44119 0 6.95383e-16 0 1.10858e-10 0 0 
1517.62 0.0064042 -0.0104271 -0.0104271 0 0 0 -3.54576e-11 -4.44119 -4.44119 0 6.95383e-16 0 1.11205e-10 0 0 
1517.68 0.0064042 -0.0104271 -0.0104271 0 0 0 -3.53064e-11 -4.44119 -4.44119 0 6.95383e-16 0 1.11553e-10 0 0 
1517.73 0.0064042 -0.0104271 -0.0104271 0 0 0 -3.53064e-11 -4.44119 -4.44119 0 6.95383e-16 0 1.119e-10 0 0 
1517.79 0.0064042 -0.0104271 -0.0104271 0 0 0 -3.52309e-11 -4.44119 -4.44119 0 6.95383e-16 0 1.12248e-10 0 0 
1517.84 0.0064042 -0.0104271 -0.0104271 0 0 0 -3.50799e-11 -4.44119 -4.44119 0 6.95383e-16 0 1.12595e-10 0 0 
1517.9 0.0064042 -0.0104271 -0.0104271 0 0 0 -3.50799e-11 -4.44119 -4.44119 0 6.95383e-16 0 1.12943e-10 0 0 
1517.95 0.0064042 -0.0104271 -0.0104271 0 0 0 -3.50799e-11 -4.44119 -4.44119 0 6.95383e-16 0 1.1329e-10 0 0 
1518.01 0.0064042 -0.0104271 -0.0104271 0 0 0 -3.50799e-11 -4.44119 -4.44119 0 6.95383e-16 0 1.13638e-10 0 0 
1518.06 0.0064042 -0.0104271 -0.0104271 0 0 0 -3.52309e-11 -4.44119 -4.44119 0 6.95383e-16 0 1.13985e-10 0 0 
1518.12 0.0064042 -0.0104271 -0.0104271 0 0 0 -3.51554e-11 -4.44119 -4.44119 0 6.95383e-16 0 1.14333e-10 0 0 
1518.17 0.0064042 -0.0104271 -0.0104271 0 0 0 -3.50799e-11 -4.44119 -4.44119 0 6.95383e-16 0 1.1468e-10 0 0 
1518.23 0.0064042 -0.0104271 -0.0104271 0 0 0 -3.50799e-11 -4.44119 -4.44119 0 6.95383e-16 0 1.15028e-10 0 0 
1518.28 0.0064042 -0.0104271 -0.0104271 0 0 0 -3.50044e-11 -4.44119 -4.44119 0 6.95383e-16 0 1.15375e-10 0 0 
1518.34 0.0064042 -0.0104271 -0.0104271 0 0 0 -3.49287e-11 -4.44119 -4.44119 0 6.95383e-16 0 1.15723e-10 0 0 
1518.39 0.0064042 -0.0104271 -0.0104271 0 0 0 -3.4702e-11 -4.44119 -4.44119 0 6.95383e-16 0 1.1607e-10 0 0 
1518.45 0.0064042 -0.0104271 -0.0104271 0 0 0 -3.4702e-11 -4.44119 -4.44119 0 6.95383e-16 0 1.16418e-10 0 0 
1518.5 0.0064042 -0.0104271 -0.0104271 0 0 0 -3.4702e-11 -4.44119 -4.44119 0 6.95383e-16 0 1.16765e-10 0 0 
1518.56 0.0064042 -0.0104271 -0.0104271 0 0 0 -3.46265e-11 -4.44119 -4.44119 0 6.95383e-16 0 1.17113e-10 0 0 
1518.61 0.0064042 -0.0104271 -0.0104271 0 0 0 -3.46265e-11 -4.44119 -4.44119 0 6.95383e-16 0 1.1746e-10 0 0 
1518.67 0.0064042 -0.0104271 -0.0104271 0 0 0 -3.43243e-11 -4.44119 -4.44119 0 6.95383e-16 0 1.17808e-10 0 0 
1518.72 0.0064042 -0.0104271 -0.0104271 0 0 0 -3.40976e-11 -4.44119 -4.44119 0 6.95383e-16 0 1.18155e-10 0 0 
1518.78 0.0064042 -0.0104271 -0.0104271 0 0 0 -3.40221e-11 -4.44119 -4.44119 0 6.95383e-16 0 1.18503e-10 0 0 
1518.83 0.0064042 -0.0104271 -0.0104271 0 0 0 -3.40221e-11 -4.44119 -4.44119 0 6.95383e-16 0 1.1885e-10 0 0 
1518.89 0.0064042 -0.0104271 -0.0104271 0 0 0 -3.40976e-11 -4.44119 -4.44119 0 6.95383e-16 0 1.19198e-10 0 0 
1518.94 0.0064042 -0.0104271 -0.0104271 0 0 0 -3.40221e-11 -4.44119 -4.44119 0 6.95383e-16 0 1.19546e-10 0 0 
1519 0.0064042 -0.0104271 -0.0104271 0 0 0 -3.38711e-11 -4.44119 -4.44119 0 6.95383e-16 0 1.19893e-10 0 0 
1519.05 0.0064042 -0.0104271 -0.0104271 0 0 0 -3.37956e-11 -4.44119 -4.44119 0 6.95383e-16 0 1.20241e-10 0 0 
1519.11 0.0064042 -0.0104271 -0.0104271 0 0 0 -3.37201e-11 -4.44119 -4.44119 0 6.95383e-16 0 1.20588e-10 0 0 
1519.16 0.0064042 -0.0104271 -0.0104271 0 0 0 -3.36446e-11 -4.44119 -4.44119 0 6.95383e-16 0 1.20936e-10 0 0 
1519.22 0.0064042 -0.0104271 -0.0104271 0 0 0 -3.34934e-11 -4.44119 -4.44119 0 6.95383e-16 0 1.21283e-10 0 0 
1519.27 0.0064042 -0.0104271 -0.0104271 0 0 0 -3.32667e-11 -4.44119 -4.44119 0 6.95383e-16 0 1.21631e-10 0 0 
1519.33 0.0064042 -0.0104271 -0.0104271 0 0 0 -3.31912e-11 -4.44119 -4.44119 0 6.95383e-16 0 1.21978e-10 0 0 
1519.38 0.0064042 -0.0104271 -0.0104271 0 0 0 -3.31157e-11 -4.44119 -4.44119 0 6.95383e-16 0 1.22326e-10 0 0 
1519.44 0.0064042 -0.0104271 -0.0104271 0 0 0 -3.2889e-11 -4.44119 -4.44119 0 6.95383e-16 0 1.22673e-10 0 0 
1519.49 0.0064042 -0.0104271 -0.0104271 0 0 0 -3.27378e-11 -4.44119 -4.44119 0 6.95383e-16 0 1.23021e-10 0 0 
1519.55 0.0064042 -0.0104271 -0.0104271 0 0 0 -3.25868e-11 -4.44119 -4.44119 0 6.95383e-16 0 1.23368e-10 0 0 
1519.6 0.0064042 -0.0104271 -0.0104271 0 0 0 -3.25113e-11 -4.44119 -4.44119 0 6.95383e-16 0 1.23716e-10 0 0 
1519.66 0.0064042 -0.0104271 -0.0104271 0 0 0 -3.25868e-11 -4.44119 -4.44119 0 6.95383e-16 0 1.24063e-10 0 0 
1519.71 0.0064042 -0.0104271 -0.0104271 0 0 0 -3.24358e-11 -4.44119 -4.44119 0 6.95383e-16 0 1.24411e-10 0 0 
1519.77 0.0064042 -0.0104271 -0.0104271 0 0 0 -3.21336e-11 -4.44119 -4.44119 0 6.95383e-16 0 1.24758e-10 0 0 
1519.82 0.0064042 -0.0104271 -0.0104271 0 0 0 -3.20581e-11 -4.44119 -4.44119 0 6.95383e-16 0 1.25106e-10 0 0 
1519.88 0.0064042 -0.0104271 -0.0104271 0 0 0 -3.19826e-11 -4.44119 -4.44119 0 6.95383e-16 0 1.25453e-10 0 0 
1519.93 0.0064042 -0.0104271 -0.0104271 0 0 0 -3.19826e-11 -4.44119 -4.44119 0 6.95383e-16 0 1.25801e-10 0 0 
1519.99 0.0064042 -0.0104271 -0.0104271 0 0 0 -3.19071e-11 -4.44119 -4.44119 0 6.95383e-16 0 1.26148e-10 0 0 
1520.04 0.0064042 -0.0104271 -0.0104271 0 0 0 -3.16804e-11 -4.44119 -4.44119 0 6.95383e-16 0 1.26496e-10 0 0 
1520.1 0.0064042 -0.0104271 -0.0104271 0 0 0 -3.14537e-11 -4.44119 -4.44119 0 6.95383e-16 0 1.26843e-10 0 0 
1520.15 0.0064042 -0.0104271 -0.0104271 0 0 0 -3.13782e-11 -4.44119 -4.44119 0 6.95383e-16 0 1.27191e-10 0 0 
1520.21 0.0064042 -0.0104271 -0.0104271 0 0 0 -3.14537e-11 -4.44119 -4.44119 0 6.95383e-16 0 1.27538e-10 0 0 
1520.26 0.0064042 -0.0104271 -0.0104271 0 0 0 -3.1378e-11 -4.44119 -4.44119 0 6.95383e-16 0 1.27886e-10 0 0 
1520.32 0.0064042 -0.0104271 -0.0104271 0 0 0 -3.13025e-11 -4.44119 -4.44119 0 6.95383e-16 0 1.28233e-10 0 0 
1520.37 0.0064042 -0.0104271 -0.0104271 0 0 0 -3.11515e-11 -4.44119 -4.44119 0 6.95383e-16 0 1.28581e-10 0 0 
1520.43 0.0064042 -0.0104271 -0.0104271 0 0 0 -3.10005e-11 -4.44119 -4.44119 0 6.95383e-16 0 1.28928e-10 0 0 
1520.48 0.0064042 -0.0104271 -0.0104271 0 0 0 -3.0925e-11 -4.44119 -4.44119 0 6.95383e-16 0 1.29276e-10 0 0 
1520.54 0.0064042 -0.0104271 -0.0104271 0 0 0 -3.0925e-11 -4.44119 -4.44119 0 6.95383e-16 0 1.29623e-10 0 0 
1520.59 0.0064042 -0.0104271 -0.0104271 0 0 0 -3.08495e-11 -4.44119 -4.44119 0 6.95383e-16 0 1.29971e-10 0 0 
1520.65 0.0064042 -0.0104271 -0.0104271 0 0 0 -3.06228e-11 -4.44119 -4.44119 0 6.95383e-16 0 1.30319e-10 0 0 
1520.7 0.0064042 -0.0104271 -0.0104271 0 0 0 -3.05471e-11 -4.44119 -4.44119 0 6.95383e-16 0 1.30666e-10 0 0 
1520.76 0.0064042 -0.0104271 -0.0104271 0 0 0 -3.04716e-11 -4.44119 -4.44119 0 6.95383e-16 0 1.31014e-10 0 0 
1520.81 0.0064042 -0.0104271 -0.0104271 0 0 0 -3.02451e-11 -4.44119 -4.44119 0 6.95383e-16 0 1.31361e-10 0 0 
1520.87 0.0064042 -0.0104271 -0.0104271 0 0 0 -3.00939e-11 -4.44119 -4.44119 0 6.95383e-16 0 1.31709e-10 0 0 
1520.93 0.0064042 -0.0104271 -0.0104271 0 0 0 -2.99427e-11 -4.44119 -4.44119 0 6.95383e-16 0 1.32056e-10 0 0 
1520.98 0.0064042 -0.0104271 -0.0104271 0 0 0 -2.97917e-11 -4.44119 -4.44119 0 6.95383e-16 0 1.32404e-10 0 0 
1521.04 0.0064042 -0.0104271 -0.0104271 0 0 0 -2.96407e-11 -4.44119 -4.44119 0 6.95383e-16 0 1.32751e-10 0 0 
1521.09 0.0064042 -0.0104271 -0.0104271 0 0 0 -2.95652e-11 -4.44119 -4.44119 0 6.95383e-16 0 1.33099e-10 0 0 
1521.15 0.0064042 -0.0104271 -0.0104271 0 0 0 -2.96407e-11 -4.44119 -4.44119 0 6.95383e-16 0 1.33446e-10 0 0 
1521.2 0.0064042 -0.0104271 -0.0104271 0 0 0 -2.9414e-11 -4.44119 -4.44119 0 6.95383e-16 0 1.33794e-10 0 0 
1521.26 0.0064042 -0.0104271 -0.0104271 0 0 0 -2.91118e-11 -4.44119 -4.44119 0 6.95383e-16 0 1.34141e-10 0 0 
1521.31 0.0064042 -0.0104271 -0.0104271 0 0 0 -2.90363e-11 -4.44119 -4.44119 0 6.95383e-16 0 1.34489e-10 0 0 
1521.37 0.0064042 -0.0104271 -0.0104271 0 0 0 -2.89608e-11 -4.44119 -4.44119 0 6.95383e-16 0 1.34836e-10 0 0 
1521.42 0.0064042 -0.0104271 -0.0104271 0 0 0 -2.88096e-11 -4.44119 -4.44119 0 6.95383e-16 0 1.35184e-10 0 0 
1521.48 0.0064042 -0.0104271 -0.0104271 0 0 0 -2.87341e-11 -4.44119 -4.44119 0 6.95383e-16 0 1.35531e-10 0 0 
1521.53 0.0064042 -0.0104271 -0.0104271 0 0 0 -2.85076e-11 -4.44119 -4.44119 0 6.95383e-16 0 1.35879e-10 0 0 
1521.59 0.0064042 -0.0104271 -0.0104271 0 0 0 -2.83564e-11 -4.44119 -4.44119 0 6.95383e-16 0 1.36226e-10 0 0 
1521.64 0.0064042 -0.0104271 -0.0104271 0 0 0 -2.83564e-11 -4.44119 -4.44119 0 6.95383e-16 0 1.36574e-10 0 0 
1521.7 0.0064042 -0.0104271 -0.0104271 0 0 0 -2.80542e-11 -4.44119 -4.44119 0 6.95383e-16 0 1.36921e-10 0 0 
1521.75 0.0064042 -0.0104271 -0.0104271 0 0 0 -2.7903e-11 -4.44119 -4.44119 0 6.95383e-16 0 1.37269e-10 0 0 
1521.81 0.0064042 -0.0104271 -0.0104271 0 0 0 -2.7903e-11 -4.44119 -4.44119 0 6.95383e-16 0 1.37616e-10 0 0 
1521.86 0.0064042 -0.0104271 -0.0104271 0 0 0 -2.78275e-11 -4.44119 -4.44119 0 6.95383e-16 0 1.37964e-10 0 0 
1521.92 0.0064042 -0.0104271 -0.0104271 0 0 0 -2.78275e-11 -4.44119 -4.44119 0 6.95383e-16 0 1.38311e-10 0 0 
1521.97 0.0064042 -0.0104271 -0.0104271 0 0 0 -2.7752e-11 -4.44119 -4.44119 0 6.95383e-16 0 1.38659e-10 0 0 
1522.03 0.0064042 -0.0104271 -0.0104271 0 0 0 -2.76765e-11 -4.44119 -4.44119 0 6.95383e-16 0 1.39006e-10 0 0 
1522.08 0.0064042 -0.0104271 -0.0104271 0 0 0 -2.7601e-11 -4.44119 -4.44119 0 6.95383e-16 0 1.39354e-10 0 0 
1522.14 0.0064042 -0.0104271 -0.0104271 0 0 0 -2.745e-11 -4.44119 -4.44119 0 6.95383e-16 0 1.39701e-10 0 0 
1522.19 0.0064042 -0.0104271 -0.0104271 0 0 0 -2.73743e-11 -4.44119 -4.44119 0 6.95383e-16 0 1.40049e-10 0 0 
1522.25 0.0064042 -0.0104271 -0.0104271 0 0 0 -2.71476e-11 -4.44119 -4.44119 0 6.95383e-16 0 1.40396e-10 0 0 
1522.3 0.0064042 -0.0104271 -0.0104271 0 0 0 -2.70721e-11 -4.44119 -4.44119 0 6.95383e-16 0 1.40744e-10 0 0 
1522.36 0.0064042 -0.0104271 -0.0104271 0 0 0 -2.69966e-11 -4.44119 -4.44119 0 6.95383e-16 0 1.41091e-10 0 0 
1522.41 0.0064042 -0.0104271 -0.0104271 0 0 0 -2.69211e-11 -4.44119 -4.44119 0 6.95383e-16 0 1.41439e-10 0 0 
1522.47 0.0064042 -0.0104271 -0.0104271 0 0 0 -2.69211e-11 -4.44119 -4.44119 0 6.95383e-16 0 1.41787e-10 0 0 
1522.52 0.0064042 -0.0104271 -0.0104271 0 0 0 -2.67701e-11 -4.44119 -4.44119 0 6.95383e-16 0 1.42134e-10 0 0 
1522.58 0.0064042 -0.0104271 -0.0104271 0 0 0 -2.66946e-11 -4.44119 -4.44119 0 6.95383e-16 0 1.42482e-10 0 0 
1522.63 0.0064042 -0.0104271 -0.0104271 0 0 0 -2.67701e-11 -4.44119 -4.44119 0 6.95383e-16 0 1.42829e-10 0 0 
1522.69 0.0064042 -0.0104271 -0.0104271 0 0 0 -2.66944e-11 -4.44119 -4.44119 0 6.95383e-16 0 1.43177e-10 0 0 
1522.74 0.0064042 -0.0104271 -0.0104271 0 0 0 -2.66944e-11 -4.44119 -4.44119 0 6.95383e-16 0 1.43524e-10 0 0 
1522.8 0.0064042 -0.0104271 -0.0104271 0 0 0 -2.66189e-11 -4.44119 -4.44119 0 6.95383e-16 0 1.43872e-10 0 0 
1522.85 0.0064042 -0.0104271 -0.0104271 0 0 0 -2.63922e-11 -4.44119 -4.44119 0 6.95383e-16 0 1.44219e-10 0 0 
1522.91 0.0064042 -0.0104271 -0.0104271 0 0 0 -2.63167e-11 -4.44119 -4.44119 0 6.95383e-16 0 1.44567e-10 0 0 
1522.96 0.0064042 -0.0104271 -0.0104271 0 0 0 -2.63167e-11 -4.44119 -4.44119 0 6.95383e-16 0 1.44914e-10 0 0 
1523.02 0.0064042 -0.0104271 -0.0104271 0 0 0 -2.63922e-11 -4.44119 -4.44119 0 6.95383e-16 0 1.45262e-10 0 0 
1523.07 0.0064042 -0.0104271 -0.0104271 0 0 0 -2.63922e-11 -4.44119 -4.44119 0 6.95383e-16 0 1.45609e-10 0 0 
1523.13 0.0064042 -0.0104271 -0.0104271 0 0 0 -2.63922e-11 -4.44119 -4.44119 0 6.95383e-16 0 1.45957e-10 0 0 
1523.18 0.0064042 -0.0104271 -0.0104271 0 0 0 -2.61657e-11 -4.44119 -4.44119 0 6.95383e-16 0 1.46304e-10 0 0 
1523.24 0.0064042 -0.0104271 -0.0104271 0 0 0 -2.59393e-11 -4.44119 -4.44119 0 6.95383e-16 0 1.46652e-10 0 0 
1523.29 0.0064042 -0.0104271 -0.0104271 0 0 0 -2.5788e-11 -4.44119 -4.44119 0 6.95383e-16 0 1.46999e-10 0 0 
1523.35 0.0064042 -0.0104271 -0.0104271 0 0 0 -2.54101e-11 -4.44119 -4.44119 0 6.95383e-16 0 1.47347e-10 0 0 
1523.4 0.0064042 -0.0104271 -0.0104271 0 0 0 -2.51079e-11 -4.44119 -4.44119 0 6.95383e-16 0 1.47694e-10 0 0 
1523.46 0.0064042 -0.0104271 -0.0104271 0 0 0 -2.50324e-11 -4.44119 -4.44119 0 6.95383e-16 0 1.48042e-10 0 0 
1523.51 0.0064042 -0.0104271 -0.0104271 0 0 0 -2.51079e-11 -4.44119 -4.44119 0 6.95383e-16 0 1.48389e-10 0 0 
1523.57 0.0064042 -0.0104271 -0.0104271 0 0 0 -2.51079e-11 -4.44119 -4.44119 0 6.95383e-16 0 1.48737e-10 0 0 
1523.62 0.0064042 -0.0104271 -0.0104271 0 0 0 -2.49569e-11 -4.44119 -4.44119 0 6.95383e-16 0 1.49084e-10 0 0 
1523.68 0.0064042 -0.0104271 -0.0104271 0 0 0 -2.48814e-11 -4.44119 -4.44119 0 6.95383e-16 0 1.49432e-10 0 0 
1523.73 0.0064042 -0.0104271 -0.0104271 0 0 0 -2.48814e-11 -4.44119 -4.44119 0 6.95383e-16 0 1.49779e-10 0 0 
1523.79 0.0064042 -0.0104271 -0.0104271 0 0 0 -2.48059e-11 -4.44119 -4.44119 0 6.95383e-16 0 1.50127e-10 0 0 
1523.84 0.0064042 -0.0104271 -0.0104271 0 0 0 -2.45792e-11 -4.44119 -4.44119 0 6.95383e-16 0 1.50474e-10 0 0 
1523.9 0.0064042 -0.0104271 -0.0104271 0 0 0 -2.4428e-11 -4.44119 -4.44119 0 6.95383e-16 0 1.50822e-10 0 0 
1523.95 0.0064042 -0.0104271 -0.0104271 0 0 0 -2.43525e-11 -4.44119 -4.44119 0 6.95383e-16 0 1.51169e-10 0 0 
1524.01 0.0064042 -0.0104271 -0.0104271 0 0 0 -2.4126e-11 -4.44119 -4.44119 0 6.95383e-16 0 1.51517e-10 0 0 
1524.06 0.0064042 -0.0104271 -0.0104271 0 0 0 -2.3975e-11 -4.44119 -4.44119 0 6.95383e-16 0 1.51864e-10 0 0 
1524.12 0.0064042 -0.0104271 -0.0104271 0 0 0 -2.3975e-11 -4.44119 -4.44119 0 6.95383e-16 0 1.52212e-10 0 0 
1524.17 0.0064042 -0.0104271 -0.0104271 0 0 0 -2.3975e-11 -4.44119 -4.44119 0 6.95383e-16 0 1.5256e-10 0 0 
1524.23 0.0064042 -0.0104271 -0.0104271 0 0 0 -2.3975e-11 -4.44119 -4.44119 0 6.95383e-16 0 1.52907e-10 0 0 
1524.28 0.0064042 -0.0104271 -0.0104271 0 0 0 -2.38238e-11 -4.44119 -4.44119 0 6.95383e-16 0 1.53255e-10 0 0 
1524.34 0.0064042 -0.0104271 -0.0104271 0 0 0 -2.36726e-11 -4.44119 -4.44119 0 6.95383e-16 0 1.53602e-10 0 0 
1524.39 0.0064042 -0.0104271 -0.0104271 0 0 0 -2.35971e-11 -4.44119 -4.44119 0 6.95383e-16 0 1.5395e-10 0 0 
1524.45 0.0064042 -0.0104271 -0.0104271 0 0 0 -2.34461e-11 -4.44119 -4.44119 0 6.95383e-16 0 1.54297e-10 0 0 
1524.5 0.0064042 -0.0104271 -0.0104271 0 0 0 -2.34461e-11 -4.44119 -4.44119 0 6.95383e-16 0 1.54645e-10 0 0 
1524.56 0.0064042 -0.0104271 -0.0104271 0 0 0 -2.32949e-11 -4.44119 -4.44119 0 6.95383e-16 0 1.54992e-10 0 0 
1524.61 0.0064042 -0.0104271 -0.0104271 0 0 0 -2.30682e-11 -4.44119 -4.44119 0 6.95383e-16 0 1.5534e-10 0 0 
1524.67 0.0064042 -0.0104271 -0.0104271 0 0 0 -2.29172e-11 -4.44119 -4.44119 0 6.95383e-16 0 1.55687e-10 0 0 
1524.72 0.0064042 -0.0104271 -0.0104271 0 0 0 -2.26907e-11 -4.44119 -4.44119 0 6.95383e-16 0 1.56035e-10 0 0 
1524.78 0.0064042 -0.0104271 -0.0104271 0 0 0 -2.26152e-11 -4.44119 -4.44119 0 6.95383e-16 0 1.56382e-10 0 0 
1524.83 0.0064042 -0.0104271 -0.0104271 0 0 0 -2.25395e-11 -4.44119 -4.44119 0 6.95383e-16 0 1.5673e-10 0 0 
1524.89 0.0064042 -0.0104271 -0.0104271 0 0 0 -2.24638e-11 -4.44119 -4.44119 0 6.95383e-16 0 1.57077e-10 0 0 
1524.94 0.0064042 -0.0104271 -0.0104271 0 0 0 -2.23883e-11 -4.44119 -4.44119 0 6.95383e-16 0 1.57425e-10 0 0 
1525 0.0064042 -0.0104271 -0.0104271 0 0 0 -2.23128e-11 -4.44119 -4.44119 0 6.95383e-16 0 1.57772e-10 0 0 
1525 -5.63993e-14 0 0 0 0 0 -2.24808e-11 -5.86553e-12 -5.86553e-12 0 -4.00741e-28 0 1.57772e-10 0 0 
1525.06 -5.59552e-14 0 0 0 0 0 -2.23038e-11 -5.81935e-12 -5.81935e-12 0 -3.97586e-28 0 1.57772e-10 0 0 
1525.11 -5.59552e-14 0 0 0 0 0 -2.23038e-11 -5.81935e-12 -5.81935e-12 0 -3.97586e-28 0 1.57772e-10 0 0 
1525.17 -5.66214e-14 0 0 0 0 0 -2.25693e-11 -5.88862e-12 -5.88862e-12 0 -4.02319e-28 0 1.57772e-10 0 0 
1525.22 -5.66214e-14 0 0 0 0 0 -2.25693e-11 -5.88862e-12 -5.88862e-12 0 -4.02319e-28 0 1.57772e-10 0 0 
1525.28 -5.68434e-14 0 0 0 0 0 -2.26578e-11 -5.91172e-12 -5.91172e-12 0 -4.03897e-28 0 1.57772e-10 0 0 
1525.33 -5.70655e-14 0 0 0 0 0 -2.27463e-11 -5.93481e-12 -5.93481e-12 0 -4.05475e-28 0 1.57772e-10 0 0 
1525.39 -5.68434e-14 0 0 0 0 0 -2.26578e-11 -5.91172e-12 -5.91172e-12 0 -4.03897e-28 0 1.57772e-10 0 0 
1525.44 -5.61773e-14 0 0 0 0 0 -2.23923e-11 -5.84244e-12 -5.84244e-12 0 -3.99164e-28 0 1.57772e-10 0 0 
1525.5 -5.59552e-14 0 0 0 0 0 -2.23038e-11 -5.81935e-12 -5.81935e-12 0 -3.97586e-28 0 1.57772e-10 0 0 
1525.55 -5.61773e-14 0 0 0 0 0 -2.23923e-11 -5.84244e-12 -5.84244e-12 0 -3.99164e-28 0 1.57772e-10 0 0 
1525.61 -5.63993e-14 0 0 0 0 0 -2.24808e-11 -5.86553e-12 -5.86553e-12 0 -4.00741e-28 0 1.57772e-10 0 0 
1525.66 -5.72875e-14 0 0 0 0 0 -2.28348e-11 -5.9579e-12 -5.9579e-12 0 -4.07052e-28 0 1.57772e-10 0 0 
1525.72 -5.75096e-14 0 0 0 0 0 -2.29233e-11 -5.98099e-12 -5.98099e-12 0 -4.0863e-28 0 1.57772e-10 0 0 
1525.77 -5.68434e-14 0 0 0 0 0 -2.26578e-11 -5.91172e-12 -5.91172e-12 0 -4.03897e-28 0 1.57772e-10 0 0 
1525.83 -5.63993e-14 0 0 0 0 0 -2.24808e-11 -5.86553e-12 -5.86553e-12 0 -4.00741e-28 0 1.57772e-10 0 0 
1525.88 -5.61773e-14 0 0 0 0 0 -2.23923e-11 -5.84244e-12 -5.84244e-12 0 -3.99164e-28 0 1.57772e-10 0 0 
1525.94 -5.59552e-14 0 0 0 0 0 -2.23038e-11 -5.81935e-12 -5.81935e-12 0 -3.97586e-28 0 1.57772e-10 0 0 
1525.99 -5.59552e-14 0 0 0 0 0 -2.23038e-11 -5.81935e-12 -5.81935e-12 0 -3.97586e-28 0 1.57772e-10 0 0 
1526.05 -5.59552e-14 0 0 0 0 0 -2.23038e-11 -5.81935e-12 -5.81935e-12 0 -3.97586e-28 0 1.57772e-10 0 0 
1526.1 -5.63993e-14 0 0 0 0 0 -2.24808e-11 -5.86553e-12 -5.86553e-12 0 -4.00741e-28 0 1.57772e-10 0 0 
1526.16 -5.70655e-14 0 0 0 0 0 -2.27463e-11 -5.93481e-12 -5.93481e-12 0 -4.05475e-28 0 1.57772e-10 0 0 
1526.21 -5.70655e-14 0 0 0 0 0 -2.27463e-11 -5.93481e-12 -5.93481e-12 0 -4.05475e-28 0 1.57772e-10 0 0 
1526.27 -5.66214e-14 0 0 0 0 0 -2.25693e-11 -5.88862e-12 -5.88862e-12 0 -4.02319e-28 0 1.57772e-10 0 0 
1526.32 -5.61773e-14 0 0 0 0 0 -2.23923e-11 -5.84244e-12 -5.84244e-12 0 -3.99164e-28 0 1.57772e-10 0 0 
1526.38 -5.59552e-14 0 0 0 0 0 -2.23038e-11 -5.81935e-12 -5.81935e-12 0 -3.97586e-28 0 1.57772e-10 0 0 
1526.43 -5.63993e-14 0 0 0 0 0 -2.24808e-11 -5.86553e-12 -5.86553e-12 0 -4.00741e-28 0 1.57772e-10 0 0 
1526.49 -5.63993e-14 0 0 0 0 0 -2.24808e-11 -5.86553e-12 -5.86553e-12 0 -4.00741e-28 0 1.57772e-10 0 0 
1526.54 -5.63993e-14 0 0 0 0 0 -2.24808e-11 -5.86553e-12 -5.86553e-12 0 -4.00741e-28 0 1.57772e-10 0 0 
1526.6 -5.70655e-14 0 0 0 0 0 -2.27463e-11 -5.93481e-12 -5.93481e-12 0 -4.05475e-28 0 1.57772e-10 0 0 
1526.65 -5.68434e-14 0 0 0 0 0 -2.26578e-11 -5.91172e-12 -5.91172e-12 0 -4.03897e-28 0 1.57772e-10 0 0 
1526.71 -5.70655e-14 0 0 0 0 0 -2.27463e-11 -5.93481e-12 -5.93481e-12 0 -4.05475e-28 0 1.57772e-10 0 0 
1526.76 -5.77316e-14 0 0 0 0 0 -2.30118e-11 -6.00409e-12 -6.00409e-12 0 -4.10208e-28 0 1.57772e-10 0 0 
1526.82 -5.79536e-14 0 0 0 0 0 -2.31003e-11 -6.02718e-12 -6.02718e-12 0 -4.11785e-28 0 1.57772e-10 0 0 
1526.87 -5.81757e-14 0 0 0 0 0 -2.31888e-11 -6.05027e-12 -6.05027e-12 0 -4.13363e-28 0 1.57772e-10 0 0 
1526.93 -5.79536e-14 0 0 0 0 0 -2.31003e-11 -6.02718e-12 -6.02718e-12 0 -4.11785e-28 0 1.57772e-10 0 0 
1526.98 -5.77316e-14 0 0 0 0 0 -2.30118e-11 -6.00409e-12 -6.00409e-12 0 -4.10208e-28 0 1.57772e-10 0 0 
1527.04 -5.75096e-14 0 0 0 0 0 -2.29233e-11 -5.98099e-12 -5.98099e-12 0 -4.0863e-28 0 1.57772e-10 0 0 
1527.09 -5.72875e-14 0 0 0 0 0 -2.28348e-11 -5.9579e-12 -5.9579e-12 0 -4.07052e-28 0 1.57772e-10 0 0 
1527.15 -5.61773e-14 0 0 0 0 0 -2.23923e-11 -5.84244e-12 -5.84244e-12 0 -3.99164e-28 0 1.57772e-10 0 0 
1527.2 -5.50671e-14 0 0 0 0 0 -2.19497e-11 -5.72697e-12 -5.72697e-12 0 -3.91275e-28 0 1.57772e-10 0 0 
1527.26 -5.50671e-14 0 0 0 0 0 -2.19497e-11 -5.72697e-12 -5.72697e-12 0 -3.91275e-28 0 1.57772e-10 0 0 
1527.31 -5.57332e-14 0 0 0 0 0 -2.22153e-11 -5.79625e-12 -5.79625e-12 0 -3.96008e-28 0 1.57772e-10 0 0 
1527.37 -5.61773e-14 0 0 0 0 0 -2.23923e-11 -5.84244e-12 -5.84244e-12 0 -3.99164e-28 0 1.57772e-10 0 0 
1527.42 -5.55112e-14 0 0 0 0 0 -2.21267e-11 -5.77316e-12 -5.77316e-12 0 -3.9443e-28 0 1.57772e-10 0 0 
1527.48 -5.55112e-14 0 0 0 0 0 -2.21267e-11 -5.77316e-12 -5.77316e-12 0 -3.9443e-28 0 1.57772e-10 0 0 
1527.53 -5.55112e-14 0 0 0 0 0 -2.21267e-11 -5.77316e-12 -5.77316e-12 0 -3.9443e-28 0 1.57772e-10 0 0 
1527.59 -5.55112e-14 0 0 0 0 0 -2.21267e-11 -5.77316e-12 -5.77316e-12 0 -3.9443e-28 0 1.57772e-10 0 0 
1527.64 -5.50671e-14 0 0 0 0 0 -2.19497e-11 -5.72697e-12 -5.72697e-12 0 -3.91275e-28 0 1.57772e-10 0 0 
1527.7 -5.4845e-14 0 0 0 0 0 -2.18612e-11 -5.70388e-12 -5.70388e-12 0 -3.89697e-28 0 1.57772e-10 0 0 
1527.75 -5.4845e-14 0 0 0 0 0 -2.18612e-11 -5.70388e-12 -5.70388e-12 0 -3.89697e-28 0 1.57772e-10 0 0 
1527.81 -5.41789e-14 0 0 0 0 0 -2.15957e-11 -5.6346e-12 -5.6346e-12 0 -3.84964e-28 0 1.57772e-10 0 0 
1527.86 -5.32907e-14 0 0 0 0 0 -2.12417e-11 -5.54223e-12 -5.54223e-12 0 -3.78653e-28 0 1.57772e-10 0 0 
1527.92 -5.26246e-14 0 0 0 0 0 -2.09762e-11 -5.47296e-12 -5.47296e-12 0 -3.7392e-28 0 1.57772e-10 0 0 
1527.97 -5.24025e-14 0 0 0 0 0 -2.08876e-11 -5.44986e-12 -5.44986e-12 0 -3.72342e-28 0 1.57772e-10 0 0 
1528.03 -5.19584e-14 0 0 0 0 0 -2.07106e-11 -5.40368e-12 -5.40368e-12 0 -3.69187e-28 0 1.57772e-10 0 0 
1528.08 -5.19584e-14 0 0 0 0 0 -2.07106e-11 -5.40368e-12 -5.40368e-12 0 -3.69187e-28 0 1.57772e-10 0 0 
1528.14 -5.15143e-14 0 0 0 0 0 -2.05336e-11 -5.35749e-12 -5.35749e-12 0 -3.66031e-28 0 1.57772e-10 0 0 
1528.19 -5.10703e-14 0 0 0 0 0 -2.03566e-11 -5.31131e-12 -5.31131e-12 0 -3.62876e-28 0 1.57772e-10 0 0 
1528.25 -5.19584e-14 0 0 0 0 0 -2.07106e-11 -5.40368e-12 -5.40368e-12 0 -3.69187e-28 0 1.57772e-10 0 0 
1528.3 -5.24025e-14 0 0 0 0 0 -2.08876e-11 -5.44986e-12 -5.44986e-12 0 -3.72342e-28 0 1.57772e-10 0 0 
1528.36 -5.19584e-14 0 0 0 0 0 -2.07106e-11 -5.40368e-12 -5.40368e-12 0 -3.69187e-28 0 1.57772e-10 0 0 
1528.41 -5.19584e-14 0 0 0 0 0 -2.07106e-11 -5.40368e-12 -5.40368e-12 0 -3.69187e-28 0 1.57772e-10 0 0 
1528.47 -5.21805e-14 0 0 0 0 0 -2.07991e-11 -5.42677e-12 -5.42677e-12 0 -3.70765e-28 0 1.57772e-10 0 0 
1528.52 -5.28466e-14 0 0 0 0 0 -2.10647e-11 -5.49605e-12 -5.49605e-12 0 -3.75498e-28 0 1.57772e-10 0 0 
1528.58 -5.30687e-14 0 0 0 0 0 -2.11532e-11 -5.51914e-12 -5.51914e-12 0 -3.77076e-28 0 1.57772e-10 0 0 
1528.63 -5.28466e-14 0 0 0 0 0 -2.10647e-11 -5.49605e-12 -5.49605e-12 0 -3.75498e-28 0 1.57772e-10 0 0 
1528.69 -5.28466e-14 0 0 0 0 0 -2.10647e-11 -5.49605e-12 -5.49605e-12 0 -3.75498e-28 0 1.57772e-10 0 0 
1528.74 -5.26246e-14 0 0 0 0 0 -2.09762e-11 -5.47296e-12 -5.47296e-12 0 -3.7392e-28 0 1.57772e-10 0 0 
1528.8 -5.19584e-14 0 0 0 0 0 -2.07106e-11 -5.40368e-12 -5.40368e-12 0 -3.69187e-28 0 1.57772e-10 0 0 
1528.85 -5.19584e-14 0 0 0 0 0 -2.07106e-11 -5.40368e-12 -5.40368e-12 0 -3.69187e-28 0 1.57772e-10 0 0 
1528.91 -5.21805e-14 0 0 0 0 0 -2.07991e-11 -5.42677e-12 -5.42677e-12 0 -3.70765e-28 0 1.57772e-10 0 0 
1528.96 -5.17364e-14 0 0 0 0 0 -2.06221e-11 -5.38058e-12 -5.38058e-12 0 -3.67609e-28 0 1.57772e-10 0 0 
1529.02 -5.15143e-14 0 0 0 0 0 -2.05336e-11 -5.35749e-12 -5.35749e-12 0 -3.66031e-28 0 1.57772e-10 0 0 
1529.07 -5.12923e-14 0 0 0 0 0 -2.04451e-11 -5.3344e-12 -5.3344e-12 0 -3.64454e-28 0 1.57772e-10 0 0 
1529.13 -5.17364e-14 0 0 0 0 0 -2.06221e-11 -5.38058e-12 -5.38058e-12 0 -3.67609e-28 0 1.57772e-10 0 0 
1529.18 -5.17364e-14 0 0 0 0 0 -2.06221e-11 -5.38058e-12 -5.38058e-12 0 -3.67609e-28 0 1.57772e-10 0 0 
1529.24 -5.10703e-14 0 0 0 0 0 -2.03566e-11 -5.31131e-12 -5.31131e-12 0 -3.62876e-28 0 1.57772e-10 0 0 
1529.29 -5.15143e-14 0 0 0 0 0 -2.05336e-11 -5.35749e-12 -5.35749e-12 0 -3.66031e-28 0 1.57772e-10 0 0 
1529.35 -5.15143e-14 0 0 0 0 0 -2.05336e-11 -5.35749e-12 -5.35749e-12 0 -3.66031e-28 0 1.57772e-10 0 0 
1529.4 -5.10703e-14 0 0 0 0 0 -2.03566e-11 -5.31131e-12 -5.31131e-12 0 -3.62876e-28 0 1.57772e-10 0 0 
1529.46 -5.06262e-14 0 0 0 0 0 -2.01796e-11 -5.26512e-12 -5.26512e-12 0 -3.59721e-28 0 1.57772e-10 0 0 
1529.51 -5.01821e-14 0 0 0 0 0 -2.00026e-11 -5.21894e-12 -5.21894e-12 0 -3.56565e-28 0 1.57772e-10 0 0 
1529.57 -5.04041e-14 0 0 0 0 0 -2.00911e-11 -5.24203e-12 -5.24203e-12 0 -3.58143e-28 0 1.57772e-10 0 0 
1529.62 -5.04041e-14 0 0 0 0 0 -2.00911e-11 -5.24203e-12 -5.24203e-12 0 -3.58143e-28 0 1.57772e-10 0 0 
1529.68 -5.04041e-14 0 0 0 0 0 -2.00911e-11 -5.24203e-12 -5.24203e-12 0 -3.58143e-28 0 1.57772e-10 0 0 
1529.73 -5.04041e-14 0 0 0 0 0 -2.00911e-11 -5.24203e-12 -5.24203e-12 0 -3.58143e-28 0 1.57772e-10 0 0 
1529.79 -5.04041e-14 0 0 0 0 0 -2.00911e-11 -5.24203e-12 -5.24203e-12 0 -3.58143e-28 0 1.57772e-10 0 0 
1529.84 -5.01821e-14 0 0 0 0 0 -2.00026e-11 -5.21894e-12 -5.21894e-12 0 -3.56565e-28 0 1.57772e-10 0 0 
1529.9 -4.95159e-14 0 0 0 0 0 -1.97371e-11 -5.14966e-12 -5.14966e-12 0 -3.51832e-28 0 1.57772e-10 0 0 
1529.95 -4.9738e-14 0 0 0 0 0 -1.98256e-11 -5.17275e-12 -5.17275e-12 0 -3.5341e-28 0 1.57772e-10 0 0 
1530.01 -4.996e-14 0 0 0 0 0 -1.99141e-11 -5.19584e-12 -5.19584e-12 0 -3.54987e-28 0 1.57772e-10 0 0 
1530.06 -4.996e-14 0 0 0 0 0 -1.99141e-11 -5.19584e-12 -5.19584e-12 0 -3.54987e-28 0 1.57772e-10 0 0 
1530.12 -5.01821e-14 0 0 0 0 0 -2.00026e-11 -5.21894e-12 -5.21894e-12 0 -3.56565e-28 0 1.57772e-10 0 0 
1530.17 -5.01821e-14 0 0 0 0 0 -2.00026e-11 -5.21894e-12 -5.21894e-12 0 -3.56565e-28 0 1.57772e-10 0 0 
1530.23 -4.996e-14 0 0 0 0 0 -1.99141e-11 -5.19584e-12 -5.19584e-12 0 -3.54987e-28 0 1.57772e-10 0 0 
1530.28 -4.9738e-14 0 0 0 0 0 -1.98256e-11 -5.17275e-12 -5.17275e-12 0 -3.5341e-28 0 1.57772e-10 0 0 
1530.34 -4.95159e-14 0 0 0 0 0 -1.97371e-11 -5.14966e-12 -5.14966e-12 0 -3.51832e-28 0 1.57772e-10 0 0 
1530.39 -4.95159e-14 0 0 0 0 0 -1.97371e-11 -5.14966e-12 -5.14966e-12 0 -3.51832e-28 0 1.57772e-10 0 0 
1530.45 -4.95159e-14 0 0 0 0 0 -1.97371e-11 -5.14966e-12 -5.14966e-12 0 -3.51832e-28 0 1.57772e-10 0 0 
1530.5 -5.04041e-14 0 0 0 0 0 -2.00911e-11 -5.24203e-12 -5.24203e-12 0 -3.58143e-28 0 1.57772e-10 0 0 
1530.56 -5.12923e-14 0 0 0 0 0 -2.04451e-11 -5.3344e-12 -5.3344e-12 0 -3.64454e-28 0 1.57772e-10 0 0 
1530.61 -5.10703e-14 0 0 0 0 0 -2.03566e-11 -5.31131e-12 -5.31131e-12 0 -3.62876e-28 0 1.57772e-10 0 0 
1530.67 -5.06262e-14 0 0 0 0 0 -2.01796e-11 -5.26512e-12 -5.26512e-12 0 -3.59721e-28 0 1.57772e-10 0 0 
1530.72 -5.01821e-14 0 0 0 0 0 -2.00026e-11 -5.21894e-12 -5.21894e-12 0 -3.56565e-28 0 1.57772e-10 0 0 
1530.78 -5.06262e-14 0 0 0 0 0 -2.01796e-11 -5.26512e-12 -5.26512e-12 0 -3.59721e-28 0 1.57772e-10 0 0 
1530.83 -5.06262e-14 0 0 0 0 0 -2.01796e-11 -5.26512e-12 -5.26512e-12 0 -3.59721e-28 0 1.57772e-10 0 0 
1530.89 -5.08482e-14 0 0 0 0 0 -2.02681e-11 -5.28821e-12 -5.28821e-12 0 -3.61298e-28 0 1.57772e-10 0 0 
1530.94 -5.12923e-14 0 0 0 0 0 -2.04451e-11 -5.3344e-12 -5.3344e-12 0 -3.64454e-28 0 1.57772e-10 0 0 
1531 -5.10703e-14 0 0 0 0 0 -2.03566e-11 -5.31131e-12 -5.31131e-12 0 -3.62876e-28 0 1.57772e-10 0 0 
1531 -5.10703e-14 0 0 0 0 0 -2.03566e-11 -5.31131e-12 -5.31131e-12 0 -3.62876e-28 0 1.57772e-10 0 0 
1531.06 -5.08482e-14 0 0 0 0 0 -2.02681e-11 -5.28821e-12 -5.28821e-12 0 -3.61298e-28 0 1.57772e-10 0 0 
1531.11 -5.06262e-14 0 0 0 0 0 -2.01796e-11 -5.26512e-12 -5.26512e-12 0 -3.59721e-28 0 1.57772e-10 0 0 
1531.17 -5.04041e-14 0 0 0 0 0 -2.00911e-11 -5.24203e-12 -5.24203e-12 0 -3.58143e-28 0 1.57772e-10 0 0 
1531.22 -5.06262e-14 0 0 0 0 0 -2.01796e-11 -5.26512e-12 -5.26512e-12 0 -3.59721e-28 0 1.57772e-10 0 0 
1531.28 -5.04041e-14 0 0 0 0 0 -2.00911e-11 -5.24203e-12 -5.24203e-12 0 -3.58143e-28 0 1.57772e-10 0 0 
1531.33 -5.01821e-14 0 0 0 0 0 -2.00026e-11 -5.21894e-12 -5.21894e-12 0 -3.56565e-28 0 1.57772e-10 0 0 
1531.39 -5.01821e-14 0 0 0 0 0 -2.00026e-11 -5.21894e-12 -5.21894e-12 0 -3.56565e-28 0 1.57772e-10 0 0 
1531.44 -4.92939e-14 0 0 0 0 0 -1.96485e-11 -5.12657e-12 -5.12657e-12 0 -3.50254e-28 0 1.57772e-10 0 0 
1531.5 -4.86278e-14 0 0 0 0 0 -1.9383e-11 -5.05729e-12 -5.05729e-12 0 -3.45521e-28 0 1.57772e-10 0 0 
1531.55 -4.88498e-14 0 0 0 0 0 -1.94715e-11 -5.08038e-12 -5.08038e-12 0 -3.47099e-28 0 1.57772e-10 0 0 
1531.61 -4.86278e-14 0 0 0 0 0 -1.9383e-11 -5.05729e-12 -5.05729e-12 0 -3.45521e-28 0 1.57772e-10 0 0 
1531.66 -4.79616e-14 0 0 0 0 0 -1.91175e-11 -4.98801e-12 -4.98801e-12 0 -3.40788e-28 0 1.57772e-10 0 0 
1531.72 -4.81837e-14 0 0 0 0 0 -1.9206e-11 -5.0111e-12 -5.0111e-12 0 -3.42366e-28 0 1.57772e-10 0 0 
1531.77 -4.79616e-14 0 0 0 0 0 -1.91175e-11 -4.98801e-12 -4.98801e-12 0 -3.40788e-28 0 1.57772e-10 0 0 
1531.83 -4.75175e-14 0 0 0 0 0 -1.89405e-11 -4.94182e-12 -4.94182e-12 0 -3.37632e-28 0 1.57772e-10 0 0 
1531.88 -4.70735e-14 0 0 0 0 0 -1.87635e-11 -4.89564e-12 -4.89564e-12 0 -3.34477e-28 0 1.57772e-10 0 0 
1531.94 -4.66294e-14 0 0 0 0 0 -1.85865e-11 -4.84945e-12 -4.84945e-12 0 -3.31322e-28 0 1.57772e-10 0 0 
1531.99 -4.70735e-14 0 0 0 0 0 -1.87635e-11 -4.89564e-12 -4.89564e-12 0 -3.34477e-28 0 1.57772e-10 0 0 
1532.05 -4.72955e-14 0 0 0 0 0 -1.8852e-11 -4.91873e-12 -4.91873e-12 0 -3.36055e-28 0 1.57772e-10 0 0 
1532.1 -4.70735e-14 0 0 0 0 0 -1.87635e-11 -4.89564e-12 -4.89564e-12 0 -3.34477e-28 0 1.57772e-10 0 0 
1532.16 -4.70735e-14 0 0 0 0 0 -1.87635e-11 -4.89564e-12 -4.89564e-12 0 -3.34477e-28 0 1.57772e-10 0 0 
1532.21 -4.79616e-14 0 0 0 0 0 -1.91175e-11 -4.98801e-12 -4.98801e-12 0 -3.40788e-28 0 1.57772e-10 0 0 
1532.27 -4.90719e-14 0 0 0 0 0 -1.956e-11 -5.10347e-12 -5.10347e-12 0 -3.48677e-28 0 1.57772e-10 0 0 
1532.32 -4.88498e-14 0 0 0 0 0 -1.94715e-11 -5.08038e-12 -5.08038e-12 0 -3.47099e-28 0 1.57772e-10 0 0 
1532.38 -4.84057e-14 0 0 0 0 0 -1.92945e-11 -5.0342e-12 -5.0342e-12 0 -3.43943e-28 0 1.57772e-10 0 0 
1532.43 -4.84057e-14 0 0 0 0 0 -1.92945e-11 -5.0342e-12 -5.0342e-12 0 -3.43943e-28 0 1.57772e-10 0 0 
1532.49 -4.88498e-14 0 0 0 0 0 -1.94715e-11 -5.08038e-12 -5.08038e-12 0 -3.47099e-28 0 1.57772e-10 0 0 
1532.54 -4.92939e-14 0 0 0 0 0 -1.96485e-11 -5.12657e-12 -5.12657e-12 0 -3.50254e-28 0 1.57772e-10 0 0 
1532.6 -4.9738e-14 0 0 0 0 0 -1.98256e-11 -5.17275e-12 -5.17275e-12 0 -3.5341e-28 0 1.57772e-10 0 0 
1532.65 -4.996e-14 0 0 0 0 0 -1.99141e-11 -5.19584e-12 -5.19584e-12 0 -3.54987e-28 0 1.57772e-10 0 0 
1532.71 -4.9738e-14 0 0 0 0 0 -1.98256e-11 -5.17275e-12 -5.17275e-12 0 -3.5341e-28 0 1.57772e-10 0 0 
1532.76 -5.01821e-14 0 0 0 0 0 -2.00026e-11 -5.21894e-12 -5.21894e-12 0 -3.56565e-28 0 1.57772e-10 0 0 
1532.82 -5.01821e-14 0 0 0 0 0 -2.00026e-11 -5.21894e-12 -5.21894e-12 0 -3.56565e-28 0 1.57772e-10 0 0 
1532.87 -4.996e-14 0 0 0 0 0 -1.99141e-11 -5.19584e-12 -5.19584e-12 0 -3.54987e-28 0 1.57772e-10 0 0 
1532.93 -4.95159e-14 0 0 0 0 0 -1.97371e-11 -5.14966e-12 -5.14966e-12 0 -3.51832e-28 0 1.57772e-10 0 0 
1532.98 -4.88498e-14 0 0 0 0 0 -1.94715e-11 -5.08038e-12 -5.08038e-12 0 -3.47099e-28 0 1.57772e-10 0 0 
1533.04 -4.84057e-14 0 0 0 0 0 -1.92945e-11 -5.0342e-12 -5.0342e-12 0 -3.43943e-28 0 1.57772e-10 0 0 
1533.09 -4.79616e-14 0 0 0 0 0 -1.91175e-11 -4.98801e-12 -4.98801e-12 0 -3.40788e-28 0 1.57772e-10 0 0 
1533.15 -4.72955e-14 0 0 0 0 0 -1.8852e-11 -4.91873e-12 -4.91873e-12 0 -3.36055e-28 0 1.57772e-10 0 0 
1533.2 -4.70735e-14 0 0 0 0 0 -1.87635e-11 -4.89564e-12 -4.89564e-12 0 -3.34477e-28 0 1.57772e-10 0 0 
1533.26 -4.70735e-14 0 0 0 0 0 -1.87635e-11 -4.89564e-12 -4.89564e-12 0 -3.34477e-28 0 1.57772e-10 0 0 
1533.31 -4.68514e-14 0 0 0 0 0 -1.8675e-11 -4.87255e-12 -4.87255e-12 0 -3.32899e-28 0 1.57772e-10 0 0 
1533.37 -4.70735e-14 0 0 0 0 0 -1.87635e-11 -4.89564e-12 -4.89564e-12 0 -3.34477e-28 0 1.57772e-10 0 0 
1533.42 -4.77396e-14 0 0 0 0 0 -1.9029e-11 -4.96492e-12 -4.96492e-12 0 -3.3921e-28 0 1.57772e-10 0 0 
1533.48 -4.79616e-14 0 0 0 0 0 -1.91175e-11 -4.98801e-12 -4.98801e-12 0 -3.40788e-28 0 1.57772e-10 0 0 
1533.53 -4.79616e-14 0 0 0 0 0 -1.91175e-11 -4.98801e-12 -4.98801e-12 0 -3.40788e-28 0 1.57772e-10 0 0 
1533.59 -4.81837e-14 0 0 0 0 0 -1.9206e-11 -5.0111e-12 -5.0111e-12 0 -3.42366e-28 0 1.57772e-10 0 0 
1533.64 -4.79616e-14 0 0 0 0 0 -1.91175e-11 -4.98801e-12 -4.98801e-12 0 -3.40788e-28 0 1.57772e-10 0 0 
1533.7 -4.72955e-14 0 0 0 0 0 -1.8852e-11 -4.91873e-12 -4.91873e-12 0 -3.36055e-28 0 1.57772e-10 0 0 
1533.75 -4.68514e-14 0 0 0 0 0 -1.8675e-11 -4.87255e-12 -4.87255e-12 0 -3.32899e-28 0 1.57772e-10 0 0 
1533.81 -4.68514e-14 0 0 0 0 0 -1.8675e-11 -4.87255e-12 -4.87255e-12 0 -3.32899e-28 0 1.57772e-10 0 0 
1533.86 -4.57412e-14 0 0 0 0 0 -1.82324e-11 -4.75708e-12 -4.75708e-12 0 -3.25011e-28 0 1.57772e-10 0 0 
1533.92 -4.50751e-14 0 0 0 0 0 -1.79669e-11 -4.68781e-12 -4.68781e-12 0 -3.20278e-28 0 1.57772e-10 0 0 
1533.97 -4.50751e-14 0 0 0 0 0 -1.79669e-11 -4.68781e-12 -4.68781e-12 0 -3.20278e-28 0 1.57772e-10 0 0 
1534.03 -4.50751e-14 0 0 0 0 0 -1.79669e-11 -4.68781e-12 -4.68781e-12 0 -3.20278e-28 0 1.57772e-10 0 0 
1534.08 -4.4853e-14 0 0 0 0 0 -1.78784e-11 -4.66471e-12 -4.66471e-12 0 -3.187e-28 0 1.57772e-10 0 0 
1534.14 -4.39648e-14 0 0 0 0 0 -1.75244e-11 -4.57234e-12 -4.57234e-12 0 -3.12389e-28 0 1.57772e-10 0 0 
1534.19 -4.35207e-14 0 0 0 0 0 -1.73474e-11 -4.52616e-12 -4.52616e-12 0 -3.09233e-28 0 1.57772e-10 0 0 
1534.25 -4.35207e-14 0 0 0 0 0 -1.73474e-11 -4.52616e-12 -4.52616e-12 0 -3.09233e-28 0 1.57772e-10 0 0 
1534.3 -4.30767e-14 0 0 0 0 0 -1.71704e-11 -4.47997e-12 -4.47997e-12 0 -3.06078e-28 0 1.57772e-10 0 0 
1534.36 -4.19664e-14 0 0 0 0 0 -1.67278e-11 -4.36451e-12 -4.36451e-12 0 -2.98189e-28 0 1.57772e-10 0 0 
1534.41 -4.15223e-14 0 0 0 0 0 -1.65508e-11 -4.31832e-12 -4.31832e-12 0 -2.95034e-28 0 1.57772e-10 0 0 
1534.47 -4.21885e-14 0 0 0 0 0 -1.68163e-11 -4.3876e-12 -4.3876e-12 0 -2.99767e-28 0 1.57772e-10 0 0 
1534.52 -4.24105e-14 0 0 0 0 0 -1.69048e-11 -4.41069e-12 -4.41069e-12 0 -3.01345e-28 0 1.57772e-10 0 0 
1534.58 -4.24105e-14 0 0 0 0 0 -1.69048e-11 -4.41069e-12 -4.41069e-12 0 -3.01345e-28 0 1.57772e-10 0 0 
1534.63 -4.26326e-14 0 0 0 0 0 -1.69933e-11 -4.43379e-12 -4.43379e-12 0 -3.02923e-28 0 1.57772e-10 0 0 
1534.69 -4.19664e-14 0 0 0 0 0 -1.67278e-11 -4.36451e-12 -4.36451e-12 0 -2.98189e-28 0 1.57772e-10 0 0 
1534.74 -4.19664e-14 0 0 0 0 0 -1.67278e-11 -4.36451e-12 -4.36451e-12 0 -2.98189e-28 0 1.57772e-10 0 0 
1534.8 -4.28546e-14 0 0 0 0 0 -1.70818e-11 -4.45688e-12 -4.45688e-12 0 -3.045e-28 0 1.57772e-10 0 0 
1534.85 -4.32987e-14 0 0 0 0 0 -1.72589e-11 -4.50306e-12 -4.50306e-12 0 -3.07656e-28 0 1.57772e-10 0 0 
1534.91 -4.30767e-14 0 0 0 0 0 -1.71704e-11 -4.47997e-12 -4.47997e-12 0 -3.06078e-28 0 1.57772e-10 0 0 
1534.96 -4.28546e-14 0 0 0 0 0 -1.70818e-11 -4.45688e-12 -4.45688e-12 0 -3.045e-28 0 1.57772e-10 0 0 
1535.02 -4.21885e-14 0 0 0 0 0 -1.68163e-11 -4.3876e-12 -4.3876e-12 0 -2.99767e-28 0 1.57772e-10 0 0 
1535.07 -4.13003e-14 0 0 0 0 0 -1.64623e-11 -4.29523e-12 -4.29523e-12 0 -2.93456e-28 0 1.57772e-10 0 0 
1535.13 -4.19664e-14 0 0 0 0 0 -1.67278e-11 -4.36451e-12 -4.36451e-12 0 -2.98189e-28 0 1.57772e-10 0 0 
1535.18 -4.24105e-14 0 0 0 0 0 -1.69048e-11 -4.41069e-12 -4.41069e-12 0 -3.01345e-28 0 1.57772e-10 0 0 
1535.24 -4.19664e-14 0 0 0 0 0 -1.67278e-11 -4.36451e-12 -4.36451e-12 0 -2.98189e-28 0 1.57772e-10 0 0 
1535.29 -4.21885e-14 0 0 0 0 0 -1.68163e-11 -4.3876e-12 -4.3876e-12 0 -2.99767e-28 0 1.57772e-10 0 0 
1535.35 -4.24105e-14 0 0 0 0 0 -1.69048e-11 -4.41069e-12 -4.41069e-12 0 -3.01345e-28 0 1.57772e-10 0 0 
1535.4 -4.26326e-14 0 0 0 0 0 -1.69933e-11 -4.43379e-12 -4.43379e-12 0 -3.02923e-28 0 1.57772e-10 0 0 
1535.46 -4.26326e-14 0 0 0 0 0 -1.69933e-11 -4.43379e-12 -4.43379e-12 0 -3.02923e-28 0 1.57772e-10 0 0 
1535.51 -4.21885e-14 0 0 0 0 0 -1.68163e-11 -4.3876e-12 -4.3876e-12 0 -2.99767e-28 0 1.57772e-10 0 0 
1535.57 -4.26326e-14 0 0 0 0 0 -1.69933e-11 -4.43379e-12 -4.43379e-12 0 -3.02923e-28 0 1.57772e-10 0 0 
1535.62 -4.28546e-14 0 0 0 0 0 -1.70818e-11 -4.45688e-12 -4.45688e-12 0 -3.045e-28 0 1.57772e-10 0 0 
1535.68 -4.28546e-14 0 0 0 0 0 -1.70818e-11 -4.45688e-12 -4.45688e-12 0 -3.045e-28 0 1.57772e-10 0 0 
1535.73 -4.24105e-14 0 0 0 0 0 -1.69048e-11 -4.41069e-12 -4.41069e-12 0 -3.01345e-28 0 1.57772e-10 0 0 
1535.79 -4.17444e-14 0 0 0 0 0 -1.66393e-11 -4.34142e-12 -4.34142e-12 0 -2.96612e-28 0 1.57772e-10 0 0 
1535.84 -4.17444e-14 0 0 0 0 0 -1.66393e-11 -4.34142e-12 -4.34142e-12 0 -2.96612e-28 0 1.57772e-10 0 0 
1535.9 -4.24105e-14 0 0 0 0 0 -1.69048e-11 -4.41069e-12 -4.41069e-12 0 -3.01345e-28 0 1.57772e-10 0 0 
1535.95 -4.26326e-14 0 0 0 0 0 -1.69933e-11 -4.43379e-12 -4.43379e-12 0 -3.02923e-28 0 1.57772e-10 0 0 
1536.01 -4.19664e-14 0 0 0 0 0 -1.67278e-11 -4.36451e-12 -4.36451e-12 0 -2.98189e-28 0 1.57772e-10 0 0 
1536.06 -4.13003e-14 0 0 0 0 0 -1.64623e-11 -4.29523e-12 -4.29523e-12 0 -2.93456e-28 0 1.57772e-10 0 0 
1536.12 -4.15223e-14 0 0 0 0 0 -1.65508e-11 -4.31832e-12 -4.31832e-12 0 -2.95034e-28 0 1.57772e-10 0 0 
1536.17 -4.19664e-14 0 0 0 0 0 -1.67278e-11 -4.36451e-12 -4.36451e-12 0 -2.98189e-28 0 1.57772e-10 0 0 
1536.23 -4.17444e-14 0 0 0 0 0 -1.66393e-11 -4.34142e-12 -4.34142e-12 0 -2.96612e-28 0 1.57772e-10 0 0 
1536.28 -4.15223e-14 0 0 0 0 0 -1.65508e-11 -4.31832e-12 -4.31832e-12 0 -2.95034e-28 0 1.57772e-10 0 0 
1536.34 -4.21885e-14 0 0 0 0 0 -1.68163e-11 -4.3876e-12 -4.3876e-12 0 -2.99767e-28 0 1.57772e-10 0 0 
1536.39 -4.21885e-14 0 0 0 0 0 -1.68163e-11 -4.3876e-12 -4.3876e-12 0 -2.99767e-28 0 1.57772e-10 0 0 
1536.45 -4.17444e-14 0 0 0 0 0 -1.66393e-11 -4.34142e-12 -4.34142e-12 0 -2.96612e-28 0 1.57772e-10 0 0 
1536.5 -4.19664e-14 0 0 0 0 0 -1.67278e-11 -4.36451e-12 -4.36451e-12 0 -2.98189e-28 0 1.57772e-10 0 0 
1536.56 -4.15223e-14 0 0 0 0 0 -1.65508e-11 -4.31832e-12 -4.31832e-12 0 -2.95034e-28 0 1.57772e-10 0 0 
1536.61 -4.15223e-14 0 0 0 0 0 -1.65508e-11 -4.31832e-12 -4.31832e-12 0 -2.95034e-28 0 1.57772e-10 0 0 
1536.67 -4.13003e-14 0 0 0 0 0 -1.64623e-11 -4.29523e-12 -4.29523e-12 0 -2.93456e-28 0 1.57772e-10 0 0 
1536.72 -4.08562e-14 0 0 0 0 0 -1.62853e-11 -4.24905e-12 -4.24905e-12 0 -2.90301e-28 0 1.57772e-10 0 0 
1536.78 -4.13003e-14 0 0 0 0 0 -1.64623e-11 -4.29523e-12 -4.29523e-12 0 -2.93456e-28 0 1.57772e-10 0 0 
1536.83 -4.13003e-14 0 0 0 0 0 -1.64623e-11 -4.29523e-12 -4.29523e-12 0 -2.93456e-28 0 1.57772e-10 0 0 
1536.89 -4.08562e-14 0 0 0 0 0 -1.62853e-11 -4.24905e-12 -4.24905e-12 0 -2.90301e-28 0 1.57772e-10 0 0 
1536.94 -4.13003e-14 0 0 0 0 0 -1.64623e-11 -4.29523e-12 -4.29523e-12 0 -2.93456e-28 0 1.57772e-10 0 0 
1537 -4.17444e-14 0 0 0 0 0 -1.66393e-11 -4.34142e-12 -4.34142e-12 0 -2.96612e-28 0 1.57772e-10 0 0 
1537 0.00245628 -0.0048291 -0.0048291 0 0 0 -1.63424e-11 -2.17121 -2.17121 0 3.43128e-17 0 1.57772e-10 0 0 
1537.06 0.00245628 -0.0048291 -0.0048291 0 0 0 -1.64324e-11 -2.17121 -2.17121 0 3.43128e-17 0 1.58344e-10 0 0 
1537.11 0.00245628 -0.0048291 -0.0048291 0 0 0 -1.64324e-11 -2.17121 -2.17121 0 3.43128e-17 0 1.58915e-10 0 0 
1537.17 0.00245628 -0.0048291 -0.0048291 0 0 0 -1.63424e-11 -2.17121 -2.17121 0 3.43128e-17 0 1.59487e-10 0 0 
1537.22 0.00245628 -0.0048291 -0.0048291 0 0 0 -1.63424e-11 -2.17121 -2.17121 0 3.43128e-17 0 1.60058e-10 0 0 
1537.28 0.00245628 -0.0048291 -0.0048291 0 0 0 -1.62525e-11 -2.17121 -2.17121 0 3.43128e-17 0 1.6063e-10 0 0 
1537.33 0.00245628 -0.0048291 -0.0048291 0 0 0 -1.62525e-11 -2.17121 -2.17121 0 3.43128e-17 0 1.61201e-10 0 0 
1537.39 0.00245628 -0.0048291 -0.0048291 0 0 0 -1.63424e-11 -2.17121 -2.17121 0 3.43128e-17 0 1.61773e-10 0 0 
1537.44 0.00245628 -0.0048291 -0.0048291 0 0 0 -1.64324e-11 -2.17121 -2.17121 0 3.43128e-17 0 1.62344e-10 0 0 
1537.5 0.00245628 -0.0048291 -0.0048291 0 0 0 -1.65223e-11 -2.17121 -2.17121 0 3.43128e-17 0 1.62916e-10 0 0 
1537.56 0.00245628 -0.0048291 -0.0048291 0 0 0 -1.63424e-11 -2.17121 -2.17121 0 3.43128e-17 0 1.63487e-10 0 0 
1537.61 0.00245628 -0.0048291 -0.0048291 0 0 0 -1.61626e-11 -2.17121 -2.17121 0 3.43128e-17 0 1.64059e-10 0 0 
1537.67 0.00245628 -0.0048291 -0.0048291 0 0 0 -1.58029e-11 -2.17121 -2.17121 0 3.43128e-17 0 1.6463e-10 0 0 
1537.72 0.00245628 -0.0048291 -0.0048291 0 0 0 -1.54431e-11 -2.17121 -2.17121 0 3.43128e-17 0 1.65201e-10 0 0 
1537.78 0.00245628 -0.0048291 -0.0048291 0 0 0 -1.54431e-11 -2.17121 -2.17121 0 3.43128e-17 0 1.65773e-10 0 0 
1537.83 0.00245628 -0.0048291 -0.0048291 0 0 0 -1.52633e-11 -2.17121 -2.17121 0 3.43128e-17 0 1.66344e-10 0 0 
1537.89 0.00245628 -0.0048291 -0.0048291 0 0 0 -1.50834e-11 -2.17121 -2.17121 0 3.43128e-17 0 1.66916e-10 0 0 
1537.94 0.00245628 -0.0048291 -0.0048291 0 0 0 -1.51734e-11 -2.17121 -2.17121 0 3.43128e-17 0 1.67487e-10 0 0 
1538 0.00245628 -0.0048291 -0.0048291 0 0 0 -1.53532e-11 -2.17121 -2.17121 0 3.43128e-17 0 1.68059e-10 0 0 
1538.06 0.00245628 -0.0048291 -0.0048291 0 0 0 -1.52633e-11 -2.17121 -2.17121 0 3.43128e-17 0 1.6863e-10 0 0 
1538.11 0.00245628 -0.0048291 -0.0048291 0 0 0 -1.49935e-11 -2.17121 -2.17121 0 3.43128e-17 0 1.69202e-10 0 0 
1538.17 0.00245628 -0.0048291 -0.0048291 0 0 0 -1.48137e-11 -2.17121 -2.17121 0 3.43128e-17 0 1.69773e-10 0 0 
1538.22 0.00245628 -0.0048291 -0.0048291 0 0 0 -1.46338e-11 -2.17121 -2.17121 0 3.43128e-17 0 1.70345e-10 0 0 
1538.28 0.00245628 -0.0048291 -0.0048291 0 0 0 -1.47237e-11 -2.17121 -2.17121 0 3.43128e-17 0 1.70916e-10 0 0 
1538.33 0.00245628 -0.0048291 -0.0048291 0 0 0 -1.46338e-11 -2.17121 -2.17121 0 3.43128e-17 0 1.71488e-10 0 0 
1538.39 0.00245628 -0.0048291 -0.0048291 0 0 0 -1.45439e-11 -2.17121 -2.17121 0 3.43128e-17 0 1.72059e-10 0 0 
1538.44 0.00245628 -0.0048291 -0.0048291 0 0 0 -1.47237e-11 -2.17121 -2.17121 0 3.43128e-17 0 1.72631e-10 0 0 
1538.5 0.00245628 -0.0048291 -0.0048291 0 0 0 -1.49935e-11 -2.17121 -2.17121 0 3.43128e-17 0 1.73202e-10 0 0 
1538.56 0.00245628 -0.0048291 -0.0048291 0 0 0 -1.51734e-11 -2.17121 -2.17121 0 3.43128e-17 0 1.73774e-10 0 0 
1538.61 0.00245628 -0.0048291 -0.0048291 0 0 0 -1.49935e-11 -2.17121 -2.17121 0 3.43128e-17 0 1.74345e-10 0 0 
1538.67 0.00245628 -0.0048291 -0.0048291 0 0 0 -1.49036e-11 -2.17121 -2.17121 0 3.43128e-17 0 1.74917e-10 0 0 
1538.72 0.00245628 -0.0048291 -0.0048291 0 0 0 -1.48137e-11 -2.17121 -2.17121 0 3.43128e-17 0 1.75488e-10 0 0 
1538.78 0.00245628 -0.0048291 -0.0048291 0 0 0 -1.48137e-11 -2.17121 -2.17121 0 3.43128e-17 0 1.76059e-10 0 0 
1538.83 0.00245628 -0.0048291 -0.0048291 0 0 0 -1.46338e-11 -2.17121 -2.17121 0 3.43128e-17 0 1.76631e-10 0 0 
1538.89 0.00245628 -0.0048291 -0.0048291 0 0 0 -1.44539e-11 -2.17121 -2.17121 0 3.43128e-17 0 1.77202e-10 0 0 
1538.94 0.00245628 -0.0048291 -0.0048291 0 0 0 -1.45439e-11 -2.17121 -2.17121 0 3.43128e-17 0 1.77774e-10 0 0 
1539 0.00245628 -0.0048291 -0.0048291 0 0 0 -1.45439e-11 -2.17121 -2.17121 0 3.43128e-17 0 1.78345e-10 0 0 
1539 -3.55271e-14 0 0 0 0 0 -1.41611e-11 -3.69482e-12 -3.69482e-12 0 -2.52435e-28 0 1.78345e-10 0 0 
1539.06 -3.57492e-14 0 0 0 0 0 -1.42496e-11 -3.71791e-12 -3.71791e-12 0 -2.54013e-28 0 1.78345e-10 0 0 
1539.11 -3.61933e-14 0 0 0 0 0 -1.44266e-11 -3.7641e-12 -3.7641e-12 0 -2.57169e-28 0 1.78345e-10 0 0 
1539.17 -3.59712e-14 0 0 0 0 0 -1.43381e-11 -3.74101e-12 -3.74101e-12 0 -2.55591e-28 0 1.78345e-10 0 0 
1539.22 -3.59712e-14 0 0 0 0 0 -1.43381e-11 -3.74101e-12 -3.74101e-12 0 -2.55591e-28 0 1.78345e-10 0 0 
1539.28 -3.61933e-14 0 0 0 0 0 -1.44266e-11 -3.7641e-12 -3.7641e-12 0 -2.57169e-28 0 1.78345e-10 0 0 
1539.33 -3.59712e-14 0 0 0 0 0 -1.43381e-11 -3.74101e-12 -3.74101e-12 0 -2.55591e-28 0 1.78345e-10 0 0 
1539.39 -3.61933e-14 0 0 0 0 0 -1.44266e-11 -3.7641e-12 -3.7641e-12 0 -2.57169e-28 0 1.78345e-10 0 0 
1539.44 -3.61933e-14 0 0 0 0 0 -1.44266e-11 -3.7641e-12 -3.7641e-12 0 -2.57169e-28 0 1.78345e-10 0 0 
1539.5 -3.68594e-14 0 0 0 0 0 -1.46922e-11 -3.83338e-12 -3.83338e-12 0 -2.61902e-28 0 1.78345e-10 0 0 
1539.55 -3.79696e-14 0 0 0 0 0 -1.51347e-11 -3.94884e-12 -3.94884e-12 0 -2.6979e-28 0 1.78345e-10 0 0 
1539.61 -3.81917e-14 0 0 0 0 0 -1.52232e-11 -3.97193e-12 -3.97193e-12 0 -2.71368e-28 0 1.78345e-10 0 0 
1539.66 -3.79696e-14 0 0 0 0 0 -1.51347e-11 -3.94884e-12 -3.94884e-12 0 -2.6979e-28 0 1.78345e-10 0 0 
1539.72 -3.73035e-14 0 0 0 0 0 -1.48692e-11 -3.87956e-12 -3.87956e-12 0 -2.65057e-28 0 1.78345e-10 0 0 
1539.77 -3.66374e-14 0 0 0 0 0 -1.46037e-11 -3.81029e-12 -3.81029e-12 0 -2.60324e-28 0 1.78345e-10 0 0 
1539.83 -3.59712e-14 0 0 0 0 0 -1.43381e-11 -3.74101e-12 -3.74101e-12 0 -2.55591e-28 0 1.78345e-10 0 0 
1539.88 -3.53051e-14 0 0 0 0 0 -1.40726e-11 -3.67173e-12 -3.67173e-12 0 -2.50858e-28 0 1.78345e-10 0 0 
1539.94 -3.57492e-14 0 0 0 0 0 -1.42496e-11 -3.71791e-12 -3.71791e-12 0 -2.54013e-28 0 1.78345e-10 0 0 
1539.99 -3.53051e-14 0 0 0 0 0 -1.40726e-11 -3.67173e-12 -3.67173e-12 0 -2.50858e-28 0 1.78345e-10 0 0 
1540.05 -3.4861e-14 0 0 0 0 0 -1.38956e-11 -3.62554e-12 -3.62554e-12 0 -2.47702e-28 0 1.78345e-10 0 0 
1540.1 -3.53051e-14 0 0 0 0 0 -1.40726e-11 -3.67173e-12 -3.67173e-12 0 -2.50858e-28 0 1.78345e-10 0 0 
1540.16 -3.53051e-14 0 0 0 0 0 -1.40726e-11 -3.67173e-12 -3.67173e-12 0 -2.50858e-28 0 1.78345e-10 0 0 
1540.21 -3.4861e-14 0 0 0 0 0 -1.38956e-11 -3.62554e-12 -3.62554e-12 0 -2.47702e-28 0 1.78345e-10 0 0 
1540.27 -3.44169e-14 0 0 0 0 0 -1.37186e-11 -3.57936e-12 -3.57936e-12 0 -2.44547e-28 0 1.78345e-10 0 0 
1540.32 -3.44169e-14 0 0 0 0 0 -1.37186e-11 -3.57936e-12 -3.57936e-12 0 -2.44547e-28 0 1.78345e-10 0 0 
1540.38 -3.4639e-14 0 0 0 0 0 -1.38071e-11 -3.60245e-12 -3.60245e-12 0 -2.46125e-28 0 1.78345e-10 0 0 
1540.43 -3.4861e-14 0 0 0 0 0 -1.38956e-11 -3.62554e-12 -3.62554e-12 0 -2.47702e-28 0 1.78345e-10 0 0 
1540.49 -3.5083e-14 0 0 0 0 0 -1.39841e-11 -3.64864e-12 -3.64864e-12 0 -2.4928e-28 0 1.78345e-10 0 0 
1540.54 -3.57492e-14 0 0 0 0 0 -1.42496e-11 -3.71791e-12 -3.71791e-12 0 -2.54013e-28 0 1.78345e-10 0 0 
1540.6 -3.55271e-14 0 0 0 0 0 -1.41611e-11 -3.69482e-12 -3.69482e-12 0 -2.52435e-28 0 1.78345e-10 0 0 
1540.65 -3.5083e-14 0 0 0 0 0 -1.39841e-11 -3.64864e-12 -3.64864e-12 0 -2.4928e-28 0 1.78345e-10 0 0 
1540.71 -3.55271e-14 0 0 0 0 0 -1.41611e-11 -3.69482e-12 -3.69482e-12 0 -2.52435e-28 0 1.78345e-10 0 0 
1540.76 -3.61933e-14 0 0 0 0 0 -1.44266e-11 -3.7641e-12 -3.7641e-12 0 -2.57169e-28 0 1.78345e-10 0 0 
1540.82 -3.64153e-14 0 0 0 0 0 -1.45151e-11 -3.78719e-12 -3.78719e-12 0 -2.58746e-28 0 1.78345e-10 0 0 
1540.87 -3.59712e-14 0 0 0 0 0 -1.43381e-11 -3.74101e-12 -3.74101e-12 0 -2.55591e-28 0 1.78345e-10 0 0 
1540.93 -3.59712e-14 0 0 0 0 0 -1.43381e-11 -3.74101e-12 -3.74101e-12 0 -2.55591e-28 0 1.78345e-10 0 0 
1540.98 -3.68594e-14 0 0 0 0 0 -1.46922e-11 -3.83338e-12 -3.83338e-12 0 -2.61902e-28 0 1.78345e-10 0 0 
1541.04 -3.68594e-14 0 0 0 0 0 -1.46922e-11 -3.83338e-12 -3.83338e-12 0 -2.61902e-28 0 1.78345e-10 0 0 
1541.09 -3.57492e-14 0 0 0 0 0 -1.42496e-11 -3.71791e-12 -3.71791e-12 0 -2.54013e-28 0 1.78345e-10 0 0 
1541.15 -3.4639e-14 0 0 0 0 0 -1.38071e-11 -3.60245e-12 -3.60245e-12 0 -2.46125e-28 0 1.78345e-10 0 0 
1541.2 -3.4639e-14 0 0 0 0 0 -1.38071e-11 -3.60245e-12 -3.60245e-12 0 -2.46125e-28 0 1.78345e-10 0 0 
1541.26 -3.4861e-14 0 0 0 0 0 -1.38956e-11 -3.62554e-12 -3.62554e-12 0 -2.47702e-28 0 1.78345e-10 0 0 
1541.31 -3.5083e-14 0 0 0 0 0 -1.39841e-11 -3.64864e-12 -3.64864e-12 0 -2.4928e-28 0 1.78345e-10 0 0 
1541.37 -3.55271e-14 0 0 0 0 0 -1.41611e-11 -3.69482e-12 -3.69482e-12 0 -2.52435e-28 0 1.78345e-10 0 0 
1541.42 -3.53051e-14 0 0 0 0 0 -1.40726e-11 -3.67173e-12 -3.67173e-12 0 -2.50858e-28 0 1.78345e-10 0 0 
1541.48 -3.5083e-14 0 0 0 0 0 -1.39841e-11 -3.64864e-12 -3.64864e-12 0 -2.4928e-28 0 1.78345e-10 0 0 
1541.53 -3.55271e-14 0 0 0 0 0 -1.41611e-11 -3.69482e-12 -3.69482e-12 0 -2.52435e-28 0 1.78345e-10 0 0 
1541.59 -3.4861e-14 0 0 0 0 0 -1.38956e-11 -3.62554e-12 -3.62554e-12 0 -2.47702e-28 0 1.78345e-10 0 0 
1541.64 -3.39728e-14 0 0 0 0 0 -1.35416e-11 -3.53317e-12 -3.53317e-12 0 -2.41391e-28 0 1.78345e-10 0 0 
1541.7 -3.4639e-14 0 0 0 0 0 -1.38071e-11 -3.60245e-12 -3.60245e-12 0 -2.46125e-28 0 1.78345e-10 0 0 
1541.75 -3.4639e-14 0 0 0 0 0 -1.38071e-11 -3.60245e-12 -3.60245e-12 0 -2.46125e-28 0 1.78345e-10 0 0 
1541.81 -3.39728e-14 0 0 0 0 0 -1.35416e-11 -3.53317e-12 -3.53317e-12 0 -2.41391e-28 0 1.78345e-10 0 0 
1541.86 -3.39728e-14 0 0 0 0 0 -1.35416e-11 -3.53317e-12 -3.53317e-12 0 -2.41391e-28 0 1.78345e-10 0 0 
1541.92 -3.39728e-14 0 0 0 0 0 -1.35416e-11 -3.53317e-12 -3.53317e-12 0 -2.41391e-28 0 1.78345e-10 0 0 
1541.97 -3.39728e-14 0 0 0 0 0 -1.35416e-11 -3.53317e-12 -3.53317e-12 0 -2.41391e-28 0 1.78345e-10 0 0 
1542.03 -3.41949e-14 0 0 0 0 0 -1.36301e-11 -3.55627e-12 -3.55627e-12 0 -2.42969e-28 0 1.78345e-10 0 0 
1542.08 -3.4639e-14 0 0 0 0 0 -1.38071e-11 -3.60245e-12 -3.60245e-12 0 -2.46125e-28 0 1.78345e-10 0 0 
1542.14 -3.44169e-14 0 0 0 0 0 -1.37186e-11 -3.57936e-12 -3.57936e-12 0 -2.44547e-28 0 1.78345e-10 0 0 
1542.19 -3.30846e-14 0 0 0 0 0 -1.31875e-11 -3.4408e-12 -3.4408e-12 0 -2.35081e-28 0 1.78345e-10 0 0 
1542.25 -3.24185e-14 0 0 0 0 0 -1.2922e-11 -3.37153e-12 -3.37153e-12 0 -2.30347e-28 0 1.78345e-10 0 0 
1542.3 -3.26406e-14 0 0 0 0 0 -1.30105e-11 -3.39462e-12 -3.39462e-12 0 -2.31925e-28 0 1.78345e-10 0 0 
1542.36 -3.24185e-14 0 0 0 0 0 -1.2922e-11 -3.37153e-12 -3.37153e-12 0 -2.30347e-28 0 1.78345e-10 0 0 
1542.41 -3.19744e-14 0 0 0 0 0 -1.2745e-11 -3.32534e-12 -3.32534e-12 0 -2.27192e-28 0 1.78345e-10 0 0 
1542.47 -3.17524e-14 0 0 0 0 0 -1.26565e-11 -3.30225e-12 -3.30225e-12 0 -2.25614e-28 0 1.78345e-10 0 0 
1542.52 -3.19744e-14 0 0 0 0 0 -1.2745e-11 -3.32534e-12 -3.32534e-12 0 -2.27192e-28 0 1.78345e-10 0 0 
1542.58 -3.19744e-14 0 0 0 0 0 -1.2745e-11 -3.32534e-12 -3.32534e-12 0 -2.27192e-28 0 1.78345e-10 0 0 
1542.63 -3.13083e-14 0 0 0 0 0 -1.24795e-11 -3.25606e-12 -3.25606e-12 0 -2.22459e-28 0 1.78345e-10 0 0 
1542.69 -3.15303e-14 0 0 0 0 0 -1.2568e-11 -3.27915e-12 -3.27915e-12 0 -2.24036e-28 0 1.78345e-10 0 0 
1542.74 -3.10862e-14 0 0 0 0 0 -1.2391e-11 -3.23297e-12 -3.23297e-12 0 -2.20881e-28 0 1.78345e-10 0 0 
1542.8 -3.08642e-14 0 0 0 0 0 -1.23025e-11 -3.20988e-12 -3.20988e-12 0 -2.19303e-28 0 1.78345e-10 0 0 
1542.85 -3.15303e-14 0 0 0 0 0 -1.2568e-11 -3.27915e-12 -3.27915e-12 0 -2.24036e-28 0 1.78345e-10 0 0 
1542.91 -3.08642e-14 0 0 0 0 0 -1.23025e-11 -3.20988e-12 -3.20988e-12 0 -2.19303e-28 0 1.78345e-10 0 0 
1542.96 -3.04201e-14 0 0 0 0 0 -1.21255e-11 -3.16369e-12 -3.16369e-12 0 -2.16148e-28 0 1.78345e-10 0 0 
1543.02 -3.04201e-14 0 0 0 0 0 -1.21255e-11 -3.16369e-12 -3.16369e-12 0 -2.16148e-28 0 1.78345e-10 0 0 
1543.07 -3.06422e-14 0 0 0 0 0 -1.2214e-11 -3.18678e-12 -3.18678e-12 0 -2.17726e-28 0 1.78345e-10 0 0 
1543.13 -3.08642e-14 0 0 0 0 0 -1.23025e-11 -3.20988e-12 -3.20988e-12 0 -2.19303e-28 0 1.78345e-10 0 0 
1543.18 -3.08642e-14 0 0 0 0 0 -1.23025e-11 -3.20988e-12 -3.20988e-12 0 -2.19303e-28 0 1.78345e-10 0 0 
1543.24 -3.08642e-14 0 0 0 0 0 -1.23025e-11 -3.20988e-12 -3.20988e-12 0 -2.19303e-28 0 1.78345e-10 0 0 
1543.29 -3.04201e-14 0 0 0 0 0 -1.21255e-11 -3.16369e-12 -3.16369e-12 0 -2.16148e-28 0 1.78345e-10 0 0 
1543.35 -3.01981e-14 0 0 0 0 0 -1.20369e-11 -3.1406e-12 -3.1406e-12 0 -2.1457e-28 0 1.78345e-10 0 0 
1543.4 -3.06422e-14 0 0 0 0 0 -1.2214e-11 -3.18678e-12 -3.18678e-12 0 -2.17726e-28 0 1.78345e-10 0 0 
1543.46 -3.06422e-14 0 0 0 0 0 -1.2214e-11 -3.18678e-12 -3.18678e-12 0 -2.17726e-28 0 1.78345e-10 0 0 
1543.51 -2.9976e-14 0 0 0 0 0 -1.19484e-11 -3.11751e-12 -3.11751e-12 0 -2.12992e-28 0 1.78345e-10 0 0 
1543.57 -2.9754e-14 0 0 0 0 0 -1.18599e-11 -3.09441e-12 -3.09441e-12 0 -2.11415e-28 0 1.78345e-10 0 0 
1543.62 -3.01981e-14 0 0 0 0 0 -1.20369e-11 -3.1406e-12 -3.1406e-12 0 -2.1457e-28 0 1.78345e-10 0 0 
1543.68 -3.06422e-14 0 0 0 0 0 -1.2214e-11 -3.18678e-12 -3.18678e-12 0 -2.17726e-28 0 1.78345e-10 0 0 
1543.73 -3.04201e-14 0 0 0 0 0 -1.21255e-11 -3.16369e-12 -3.16369e-12 0 -2.16148e-28 0 1.78345e-10 0 0 
1543.79 -3.04201e-14 0 0 0 0 0 -1.21255e-11 -3.16369e-12 -3.16369e-12 0 -2.16148e-28 0 1.78345e-10 0 0 
1543.84 -2.9976e-14 0 0 0 0 0 -1.19484e-11 -3.11751e-12 -3.11751e-12 0 -2.12992e-28 0 1.78345e-10 0 0 
1543.9 -2.95319e-14 0 0 0 0 0 -1.17714e-11 -3.07132e-12 -3.07132e-12 0 -2.09837e-28 0 1.78345e-10 0 0 
1543.95 -2.95319e-14 0 0 0 0 0 -1.17714e-11 -3.07132e-12 -3.07132e-12 0 -2.09837e-28 0 1.78345e-10 0 0 
1544.01 -2.86438e-14 0 0 0 0 0 -1.14174e-11 -2.97895e-12 -2.97895e-12 0 -2.03526e-28 0 1.78345e-10 0 0 
1544.06 -2.86438e-14 0 0 0 0 0 -1.14174e-11 -2.97895e-12 -2.97895e-12 0 -2.03526e-28 0 1.78345e-10 0 0 
1544.12 -2.86438e-14 0 0 0 0 0 -1.14174e-11 -2.97895e-12 -2.97895e-12 0 -2.03526e-28 0 1.78345e-10 0 0 
1544.17 -2.86438e-14 0 0 0 0 0 -1.14174e-11 -2.97895e-12 -2.97895e-12 0 -2.03526e-28 0 1.78345e-10 0 0 
1544.23 -2.86438e-14 0 0 0 0 0 -1.14174e-11 -2.97895e-12 -2.97895e-12 0 -2.03526e-28 0 1.78345e-10 0 0 
1544.28 -2.86438e-14 0 0 0 0 0 -1.14174e-11 -2.97895e-12 -2.97895e-12 0 -2.03526e-28 0 1.78345e-10 0 0 
1544.34 -2.86438e-14 0 0 0 0 0 -1.14174e-11 -2.97895e-12 -2.97895e-12 0 -2.03526e-28 0 1.78345e-10 0 0 
1544.39 -2.86438e-14 0 0 0 0 0 -1.14174e-11 -2.97895e-12 -2.97895e-12 0 -2.03526e-28 0 1.78345e-10 0 0 
1544.45 -2.9754e-14 0 0 0 0 0 -1.18599e-11 -3.09441e-12 -3.09441e-12 0 -2.11415e-28 0 1.78345e-10 0 0 
1544.5 -2.9754e-14 0 0 0 0 0 -1.18599e-11 -3.09441e-12 -3.09441e-12 0 -2.11415e-28 0 1.78345e-10 0 0 
1544.56 -2.93099e-14 0 0 0 0 0 -1.16829e-11 -3.04823e-12 -3.04823e-12 0 -2.08259e-28 0 1.78345e-10 0 0 
1544.61 -2.95319e-14 0 0 0 0 0 -1.17714e-11 -3.07132e-12 -3.07132e-12 0 -2.09837e-28 0 1.78345e-10 0 0 
1544.67 -2.95319e-14 0 0 0 0 0 -1.17714e-11 -3.07132e-12 -3.07132e-12 0 -2.09837e-28 0 1.78345e-10 0 0 
1544.72 -2.88658e-14 0 0 0 0 0 -1.15059e-11 -3.00204e-12 -3.00204e-12 0 -2.05104e-28 0 1.78345e-10 0 0 
1544.78 -2.88658e-14 0 0 0 0 0 -1.15059e-11 -3.00204e-12 -3.00204e-12 0 -2.05104e-28 0 1.78345e-10 0 0 
1544.83 -2.90878e-14 0 0 0 0 0 -1.15944e-11 -3.02514e-12 -3.02514e-12 0 -2.06682e-28 0 1.78345e-10 0 0 
1544.89 -2.86438e-14 0 0 0 0 0 -1.14174e-11 -2.97895e-12 -2.97895e-12 0 -2.03526e-28 0 1.78345e-10 0 0 
1544.94 -2.88658e-14 0 0 0 0 0 -1.15059e-11 -3.00204e-12 -3.00204e-12 0 -2.05104e-28 0 1.78345e-10 0 0 
1545 -2.93099e-14 0 0 0 0 0 -1.16829e-11 -3.04823e-12 -3.04823e-12 0 -2.08259e-28 0 1.78345e-10 0 0 
1545 -2.84217e-14 0 0 0 0 0 -1.13289e-11 -2.95586e-12 -2.95586e-12 0 -2.01948e-28 0 1.78345e-10 0 0 
1545.06 -2.86438e-14 0 0 0 0 0 -1.14174e-11 -2.97895e-12 -2.97895e-12 0 -2.03526e-28 0 1.78345e-10 0 0 
1545.11 -2.84217e-14 0 0 0 0 0 -1.13289e-11 -2.95586e-12 -2.95586e-12 0 -2.01948e-28 0 1.78345e-10 0 0 
1545.17 -2.75335e-14 0 0 0 0 0 -1.09749e-11 -2.86349e-12 -2.86349e-12 0 -1.95638e-28 0 1.78345e-10 0 0 
1545.22 -2.75335e-14 0 0 0 0 0 -1.09749e-11 -2.86349e-12 -2.86349e-12 0 -1.95638e-28 0 1.78345e-10 0 0 
1545.28 -2.77556e-14 0 0 0 0 0 -1.10634e-11 -2.88658e-12 -2.88658e-12 0 -1.97215e-28 0 1.78345e-10 0 0 
1545.33 -2.81997e-14 0 0 0 0 0 -1.12404e-11 -2.93277e-12 -2.93277e-12 0 -2.00371e-28 0 1.78345e-10 0 0 
1545.39 -2.88658e-14 0 0 0 0 0 -1.15059e-11 -3.00204e-12 -3.00204e-12 0 -2.05104e-28 0 1.78345e-10 0 0 
1545.44 -2.90878e-14 0 0 0 0 0 -1.15944e-11 -3.02514e-12 -3.02514e-12 0 -2.06682e-28 0 1.78345e-10 0 0 
1545.5 -2.86438e-14 0 0 0 0 0 -1.14174e-11 -2.97895e-12 -2.97895e-12 0 -2.03526e-28 0 1.78345e-10 0 0 
1545.55 -2.84217e-14 0 0 0 0 0 -1.13289e-11 -2.95586e-12 -2.95586e-12 0 -2.01948e-28 0 1.78345e-10 0 0 
1545.61 -2.88658e-14 0 0 0 0 0 -1.15059e-11 -3.00204e-12 -3.00204e-12 0 -2.05104e-28 0 1.78345e-10 0 0 
1545.66 -2.88658e-14 0 0 0 0 0 -1.15059e-11 -3.00204e-12 -3.00204e-12 0 -2.05104e-28 0 1.78345e-10 0 0 
1545.72 -2.81997e-14 0 0 0 0 0 -1.12404e-11 -2.93277e-12 -2.93277e-12 0 -2.00371e-28 0 1.78345e-10 0 0 
1545.77 -2.86438e-14 0 0 0 0 0 -1.14174e-11 -2.97895e-12 -2.97895e-12 0 -2.03526e-28 0 1.78345e-10 0 0 
1545.83 -2.88658e-14 0 0 0 0 0 -1.15059e-11 -3.00204e-12 -3.00204e-12 0 -2.05104e-28 0 1.78345e-10 0 0 
1545.88 -2.79776e-14 0 0 0 0 0 -1.11519e-11 -2.90967e-12 -2.90967e-12 0 -1.98793e-28 0 1.78345e-10 0 0 
1545.94 -2.81997e-14 0 0 0 0 0 -1.12404e-11 -2.93277e-12 -2.93277e-12 0 -2.00371e-28 0 1.78345e-10 0 0 
1545.99 -2.81997e-14 0 0 0 0 0 -1.12404e-11 -2.93277e-12 -2.93277e-12 0 -2.00371e-28 0 1.78345e-10 0 0 
1546.05 -2.79776e-14 0 0 0 0 0 -1.11519e-11 -2.90967e-12 -2.90967e-12 0 -1.98793e-28 0 1.78345e-10 0 0 
1546.1 -2.81997e-14 0 0 0 0 0 -1.12404e-11 -2.93277e-12 -2.93277e-12 0 -2.00371e-28 0 1.78345e-10 0 0 
1546.16 -2.81997e-14 0 0 0 0 0 -1.12404e-11 -2.93277e-12 -2.93277e-12 0 -2.00371e-28 0 1.78345e-10 0 0 
1546.21 -2.81997e-14 0 0 0 0 0 -1.12404e-11 -2.93277e-12 -2.93277e-12 0 -2.00371e-28 0 1.78345e-10 0 0 
1546.27 -2.88658e-14 0 0 0 0 0 -1.15059e-11 -3.00204e-12 -3.00204e-12 0 -2.05104e-28 0 1.78345e-10 0 0 
1546.32 -2.95319e-14 0 0 0 0 0 -1.17714e-11 -3.07132e-12 -3.07132e-12 0 -2.09837e-28 0 1.78345e-10 0 0 
1546.38 -2.90878e-14 0 0 0 0 0 -1.15944e-11 -3.02514e-12 -3.02514e-12 0 -2.06682e-28 0 1.78345e-10 0 0 
1546.43 -2.77556e-14 0 0 0 0 0 -1.10634e-11 -2.88658e-12 -2.88658e-12 0 -1.97215e-28 0 1.78345e-10 0 0 
1546.49 -2.79776e-14 0 0 0 0 0 -1.11519e-11 -2.90967e-12 -2.90967e-12 0 -1.98793e-28 0 1.78345e-10 0 0 
1546.54 -2.84217e-14 0 0 0 0 0 -1.13289e-11 -2.95586e-12 -2.95586e-12 0 -2.01948e-28 0 1.78345e-10 0 0 
1546.6 -2.84217e-14 0 0 0 0 0 -1.13289e-11 -2.95586e-12 -2.95586e-12 0 -2.01948e-28 0 1.78345e-10 0 0 
1546.65 -2.86438e-14 0 0 0 0 0 -1.14174e-11 -2.97895e-12 -2.97895e-12 0 -2.03526e-28 0 1.78345e-10 0 0 
1546.71 -2.84217e-14 0 0 0 0 0 -1.13289e-11 -2.95586e-12 -2.95586e-12 0 -2.01948e-28 0 1.78345e-10 0 0 
1546.76 -2.77556e-14 0 0 0 0 0 -1.10634e-11 -2.88658e-12 -2.88658e-12 0 -1.97215e-28 0 1.78345e-10 0 0 
1546.82 -2.77556e-14 0 0 0 0 0 -1.10634e-11 -2.88658e-12 -2.88658e-12 0 -1.97215e-28 0 1.78345e-10 0 0 
1546.87 -2.86438e-14 0 0 0 0 0 -1.14174e-11 -2.97895e-12 -2.97895e-12 0 -2.03526e-28 0 1.78345e-10 0 0 
1546.93 -2.90878e-14 0 0 0 0 0 -1.15944e-11 -3.02514e-12 -3.02514e-12 0 -2.06682e-28 0 1.78345e-10 0 0 
1546.98 -2.88658e-14 0 0 0 0 0 -1.15059e-11 -3.00204e-12 -3.00204e-12 0 -2.05104e-28 0 1.78345e-10 0 0 
1547.04 -2.86438e-14 0 0 0 0 0 -1.14174e-11 -2.97895e-12 -2.97895e-12 0 -2.03526e-28 0 1.78345e-10 0 0 
1547.09 -2.84217e-14 0 0 0 0 0 -1.13289e-11 -2.95586e-12 -2.95586e-12 0 -2.01948e-28 0 1.78345e-10 0 0 
1547.15 -2.84217e-14 0 0 0 0 0 -1.13289e-11 -2.95586e-12 -2.95586e-12 0 -2.01948e-28 0 1.78345e-10 0 0 
1547.2 -2.88658e-14 0 0 0 0 0 -1.15059e-11 -3.00204e-12 -3.00204e-12 0 -2.05104e-28 0 1.78345e-10 0 0 
1547.26 -2.93099e-14 0 0 0 0 0 -1.16829e-11 -3.04823e-12 -3.04823e-12 0 -2.08259e-28 0 1.78345e-10 0 0 
1547.31 -2.93099e-14 0 0 0 0 0 -1.16829e-11 -3.04823e-12 -3.04823e-12 0 -2.08259e-28 0 1.78345e-10 0 0 
1547.37 -2.93099e-14 0 0 0 0 0 -1.16829e-11 -3.04823e-12 -3.04823e-12 0 -2.08259e-28 0 1.78345e-10 0 0 
1547.42 -2.95319e-14 0 0 0 0 0 -1.17714e-11 -3.07132e-12 -3.07132e-12 0 -2.09837e-28 0 1.78345e-10 0 0 
1547.48 -2.93099e-14 0 0 0 0 0 -1.16829e-11 -3.04823e-12 -3.04823e-12 0 -2.08259e-28 0 1.78345e-10 0 0 
1547.53 -2.9754e-14 0 0 0 0 0 -1.18599e-11 -3.09441e-12 -3.09441e-12 0 -2.11415e-28 0 1.78345e-10 0 0 
1547.59 -3.01981e-14 0 0 0 0 0 -1.20369e-11 -3.1406e-12 -3.1406e-12 0 -2.1457e-28 0 1.78345e-10 0 0 
1547.64 -2.9754e-14 0 0 0 0 0 -1.18599e-11 -3.09441e-12 -3.09441e-12 0 -2.11415e-28 0 1.78345e-10 0 0 
1547.7 -2.9976e-14 0 0 0 0 0 -1.19484e-11 -3.11751e-12 -3.11751e-12 0 -2.12992e-28 0 1.78345e-10 0 0 
1547.75 -3.01981e-14 0 0 0 0 0 -1.20369e-11 -3.1406e-12 -3.1406e-12 0 -2.1457e-28 0 1.78345e-10 0 0 
1547.81 -2.9976e-14 0 0 0 0 0 -1.19484e-11 -3.11751e-12 -3.11751e-12 0 -2.12992e-28 0 1.78345e-10 0 0 
1547.86 -2.95319e-14 0 0 0 0 0 -1.17714e-11 -3.07132e-12 -3.07132e-12 0 -2.09837e-28 0 1.78345e-10 0 0 
1547.92 -2.86438e-14 0 0 0 0 0 -1.14174e-11 -2.97895e-12 -2.97895e-12 0 -2.03526e-28 0 1.78345e-10 0 0 
1547.97 -2.84217e-14 0 0 0 0 0 -1.13289e-11 -2.95586e-12 -2.95586e-12 0 -2.01948e-28 0 1.78345e-10 0 0 
1548.03 -2.81997e-14 0 0 0 0 0 -1.12404e-11 -2.93277e-12 -2.93277e-12 0 -2.00371e-28 0 1.78345e-10 0 0 
1548.08 -2.77556e-14 0 0 0 0 0 -1.10634e-11 -2.88658e-12 -2.88658e-12 0 -1.97215e-28 0 1.78345e-10 0 0 
1548.14 -2.77556e-14 0 0 0 0 0 -1.10634e-11 -2.88658e-12 -2.88658e-12 0 -1.97215e-28 0 1.78345e-10 0 0 
1548.19 -2.75335e-14 0 0 0 0 0 -1.09749e-11 -2.86349e-12 -2.86349e-12 0 -1.95638e-28 0 1.78345e-10 0 0 
1548.25 -2.73115e-14 0 0 0 0 0 -1.08864e-11 -2.84039e-12 -2.84039e-12 0 -1.9406e-28 0 1.78345e-10 0 0 
1548.3 -2.68674e-14 0 0 0 0 0 -1.07093e-11 -2.79421e-12 -2.79421e-12 0 -1.90904e-28 0 1.78345e-10 0 0 
1548.36 -2.59792e-14 0 0 0 0 0 -1.03553e-11 -2.70184e-12 -2.70184e-12 0 -1.84593e-28 0 1.78345e-10 0 0 
1548.41 -2.53131e-14 0 0 0 0 0 -1.00898e-11 -2.63256e-12 -2.63256e-12 0 -1.7986e-28 0 1.78345e-10 0 0 
1548.47 -2.44249e-14 0 0 0 0 0 -9.73577e-12 -2.54019e-12 -2.54019e-12 0 -1.73549e-28 0 1.78345e-10 0 0 
1548.52 -2.35367e-14 0 0 0 0 0 -9.38174e-12 -2.44782e-12 -2.44782e-12 0 -1.67239e-28 0 1.78345e-10 0 0 
1548.58 -2.33147e-14 0 0 0 0 0 -9.29323e-12 -2.42473e-12 -2.42473e-12 0 -1.65661e-28 0 1.78345e-10 0 0 
1548.63 -2.42029e-14 0 0 0 0 0 -9.64726e-12 -2.5171e-12 -2.5171e-12 0 -1.71972e-28 0 1.78345e-10 0 0 
1548.69 -2.4647e-14 0 0 0 0 0 -9.82427e-12 -2.56328e-12 -2.56328e-12 0 -1.75127e-28 0 1.78345e-10 0 0 
1548.74 -2.4647e-14 0 0 0 0 0 -9.82427e-12 -2.56328e-12 -2.56328e-12 0 -1.75127e-28 0 1.78345e-10 0 0 
1548.8 -2.4647e-14 0 0 0 0 0 -9.82427e-12 -2.56328e-12 -2.56328e-12 0 -1.75127e-28 0 1.78345e-10 0 0 
1548.85 -2.37588e-14 0 0 0 0 0 -9.47025e-12 -2.47091e-12 -2.47091e-12 0 -1.68816e-28 0 1.78345e-10 0 0 
1548.91 -2.35367e-14 0 0 0 0 0 -9.38174e-12 -2.44782e-12 -2.44782e-12 0 -1.67239e-28 0 1.78345e-10 0 0 
1548.96 -2.44249e-14 0 0 0 0 0 -9.73577e-12 -2.54019e-12 -2.54019e-12 0 -1.73549e-28 0 1.78345e-10 0 0 
1549.02 -2.42029e-14 0 0 0 0 0 -9.64726e-12 -2.5171e-12 -2.5171e-12 0 -1.71972e-28 0 1.78345e-10 0 0 
1549.07 -2.39808e-14 0 0 0 0 0 -9.55875e-12 -2.49401e-12 -2.49401e-12 0 -1.70394e-28 0 1.78345e-10 0 0 
1549.13 -2.4869e-14 0 0 0 0 0 -9.91278e-12 -2.58638e-12 -2.58638e-12 0 -1.76705e-28 0 1.78345e-10 0 0 
1549.18 -2.5091e-14 0 0 0 0 0 -1.00013e-11 -2.60947e-12 -2.60947e-12 0 -1.78283e-28 0 1.78345e-10 0 0 
1549.24 -2.4869e-14 0 0 0 0 0 -9.91278e-12 -2.58638e-12 -2.58638e-12 0 -1.76705e-28 0 1.78345e-10 0 0 
1549.29 -2.53131e-14 0 0 0 0 0 -1.00898e-11 -2.63256e-12 -2.63256e-12 0 -1.7986e-28 0 1.78345e-10 0 0 
1549.35 -2.5091e-14 0 0 0 0 0 -1.00013e-11 -2.60947e-12 -2.60947e-12 0 -1.78283e-28 0 1.78345e-10 0 0 
1549.4 -2.39808e-14 0 0 0 0 0 -9.55875e-12 -2.49401e-12 -2.49401e-12 0 -1.70394e-28 0 1.78345e-10 0 0 
1549.46 -2.44249e-14 0 0 0 0 0 -9.73577e-12 -2.54019e-12 -2.54019e-12 0 -1.73549e-28 0 1.78345e-10 0 0 
1549.51 -2.44249e-14 0 0 0 0 0 -9.73577e-12 -2.54019e-12 -2.54019e-12 0 -1.73549e-28 0 1.78345e-10 0 0 
1549.57 -2.33147e-14 0 0 0 0 0 -9.29323e-12 -2.42473e-12 -2.42473e-12 0 -1.65661e-28 0 1.78345e-10 0 0 
1549.62 -2.35367e-14 0 0 0 0 0 -9.38174e-12 -2.44782e-12 -2.44782e-12 0 -1.67239e-28 0 1.78345e-10 0 0 
1549.68 -2.4647e-14 0 0 0 0 0 -9.82427e-12 -2.56328e-12 -2.56328e-12 0 -1.75127e-28 0 1.78345e-10 0 0 
1549.73 -2.53131e-14 0 0 0 0 0 -1.00898e-11 -2.63256e-12 -2.63256e-12 0 -1.7986e-28 0 1.78345e-10 0 0 
1549.79 -2.55351e-14 0 0 0 0 0 -1.01783e-11 -2.65565e-12 -2.65565e-12 0 -1.81438e-28 0 1.78345e-10 0 0 
1549.84 -2.55351e-14 0 0 0 0 0 -1.01783e-11 -2.65565e-12 -2.65565e-12 0 -1.81438e-28 0 1.78345e-10 0 0 
1549.9 -2.5091e-14 0 0 0 0 0 -1.00013e-11 -2.60947e-12 -2.60947e-12 0 -1.78283e-28 0 1.78345e-10 0 0 
1549.95 -2.44249e-14 0 0 0 0 0 -9.73577e-12 -2.54019e-12 -2.54019e-12 0 -1.73549e-28 0 1.78345e-10 0 0 
1550.01 -2.44249e-14 0 0 0 0 0 -9.73577e-12 -2.54019e-12 -2.54019e-12 0 -1.73549e-28 0 1.78345e-10 0 0 
1550.06 -2.4647e-14 0 0 0 0 0 -9.82427e-12 -2.56328e-12 -2.56328e-12 0 -1.75127e-28 0 1.78345e-10 0 0 
1550.12 -2.44249e-14 0 0 0 0 0 -9.73577e-12 -2.54019e-12 -2.54019e-12 0 -1.73549e-28 0 1.78345e-10 0 0 
1550.17 -2.42029e-14 0 0 0 0 0 -9.64726e-12 -2.5171e-12 -2.5171e-12 0 -1.71972e-28 0 1.78345e-10 0 0 
1550.23 -2.44249e-14 0 0 0 0 0 -9.73577e-12 -2.54019e-12 -2.54019e-12 0 -1.73549e-28 0 1.78345e-10 0 0 
1550.28 -2.44249e-14 0 0 0 0 0 -9.73577e-12 -2.54019e-12 -2.54019e-12 0 -1.73549e-28 0 1.78345e-10 0 0 
1550.34 -2.42029e-14 0 0 0 0 0 -9.64726e-12 -2.5171e-12 -2.5171e-12 0 -1.71972e-28 0 1.78345e-10 0 0 
1550.39 -2.37588e-14 0 0 0 0 0 -9.47025e-12 -2.47091e-12 -2.47091e-12 0 -1.68816e-28 0 1.78345e-10 0 0 
1550.45 -2.37588e-14 0 0 0 0 0 -9.47025e-12 -2.47091e-12 -2.47091e-12 0 -1.68816e-28 0 1.78345e-10 0 0 
1550.5 -2.42029e-14 0 0 0 0 0 -9.64726e-12 -2.5171e-12 -2.5171e-12 0 -1.71972e-28 0 1.78345e-10 0 0 
1550.56 -2.37588e-14 0 0 0 0 0 -9.47025e-12 -2.47091e-12 -2.47091e-12 0 -1.68816e-28 0 1.78345e-10 0 0 
1550.61 -2.35367e-14 0 0 0 0 0 -9.38174e-12 -2.44782e-12 -2.44782e-12 0 -1.67239e-28 0 1.78345e-10 0 0 
1550.67 -2.37588e-14 0 0 0 0 0 -9.47025e-12 -2.47091e-12 -2.47091e-12 0 -1.68816e-28 0 1.78345e-10 0 0 
1550.72 -2.37588e-14 0 0 0 0 0 -9.47025e-12 -2.47091e-12 -2.47091e-12 0 -1.68816e-28 0 1.78345e-10 0 0 
1550.78 -2.33147e-14 0 0 0 0 0 -9.29323e-12 -2.42473e-12 -2.42473e-12 0 -1.65661e-28 0 1.78345e-10 0 0 
1550.83 -2.37588e-14 0 0 0 0 0 -9.47025e-12 -2.47091e-12 -2.47091e-12 0 -1.68816e-28 0 1.78345e-10 0 0 
1550.89 -2.39808e-14 0 0 0 0 0 -9.55875e-12 -2.49401e-12 -2.49401e-12 0 -1.70394e-28 0 1.78345e-10 0 0 
1550.94 -2.33147e-14 0 0 0 0 0 -9.29323e-12 -2.42473e-12 -2.42473e-12 0 -1.65661e-28 0 1.78345e-10 0 0 
1551 -2.30926e-14 0 0 0 0 0 -9.20473e-12 -2.40163e-12 -2.40163e-12 0 -1.64083e-28 0 1.78345e-10 0 0 
1551 0.00245628 -0.0048291 -0.0048291 0 0 0 -9.14818e-12 -2.17121 -2.17121 0 3.43128e-17 0 1.78345e-10 0 0 
1551.06 0.00245628 -0.0048291 -0.0048291 0 0 0 -9.32804e-12 -2.17121 -2.17121 0 3.43128e-17 0 1.78917e-10 0 0 
1551.11 0.00245628 -0.0048291 -0.0048291 0 0 0 -9.23811e-12 -2.17121 -2.17121 0 3.43128e-17 0 1.79488e-10 0 0 
1551.17 0.00245628 -0.0048291 -0.0048291 0 0 0 -8.96833e-12 -2.17121 -2.17121 0 3.43128e-17 0 1.8006e-10 0 0 
1551.22 0.00245628 -0.0048291 -0.0048291 0 0 0 -8.78847e-12 -2.17121 -2.17121 0 3.43128e-17 0 1.80631e-10 0 0 
1551.28 0.00245628 -0.0048291 -0.0048291 0 0 0 -8.78847e-12 -2.17121 -2.17121 0 3.43128e-17 0 1.81203e-10 0 0 
1551.33 0.00245628 -0.0048291 -0.0048291 0 0 0 -8.8784e-12 -2.17121 -2.17121 0 3.43128e-17 0 1.81774e-10 0 0 
1551.39 0.00245628 -0.0048291 -0.0048291 0 0 0 -8.69854e-12 -2.17121 -2.17121 0 3.43128e-17 0 1.82346e-10 0 0 
1551.44 0.00245628 -0.0048291 -0.0048291 0 0 0 -8.96833e-12 -2.17121 -2.17121 0 3.43128e-17 0 1.82917e-10 0 0 
1551.5 0.00245628 -0.0048291 -0.0048291 0 0 0 -9.23811e-12 -2.17121 -2.17121 0 3.43128e-17 0 1.83489e-10 0 0 
1551.56 0.00245628 -0.0048291 -0.0048291 0 0 0 -9.05825e-12 -2.17121 -2.17121 0 3.43128e-17 0 1.8406e-10 0 0 
1551.61 0.00245628 -0.0048291 -0.0048291 0 0 0 -8.8784e-12 -2.17121 -2.17121 0 3.43128e-17 0 1.84632e-10 0 0 
1551.67 0.00245628 -0.0048291 -0.0048291 0 0 0 -8.78847e-12 -2.17121 -2.17121 0 3.43128e-17 0 1.85203e-10 0 0 
1551.72 0.00245628 -0.0048291 -0.0048291 0 0 0 -8.60861e-12 -2.17121 -2.17121 0 3.43128e-17 0 1.85775e-10 0 0 
1551.78 0.00245628 -0.0048291 -0.0048291 0 0 0 -8.51869e-12 -2.17121 -2.17121 0 3.43128e-17 0 1.86346e-10 0 0 
1551.83 0.00245628 -0.0048291 -0.0048291 0 0 0 -8.60861e-12 -2.17121 -2.17121 0 3.43128e-17 0 1.86918e-10 0 0 
1551.89 0.00245628 -0.0048291 -0.0048291 0 0 0 -8.2489e-12 -2.17121 -2.17121 0 3.43128e-17 0 1.87489e-10 0 0 
1551.94 0.00245628 -0.0048291 -0.0048291 0 0 0 -8.06905e-12 -2.17121 -2.17121 0 3.43128e-17 0 1.8806e-10 0 0 
1552 0.00245628 -0.0048291 -0.0048291 0 0 0 -8.33883e-12 -2.17121 -2.17121 0 3.43128e-17 0 1.88632e-10 0 0 
1552.06 0.00245628 -0.0048291 -0.0048291 0 0 0 -8.33883e-12 -2.17121 -2.17121 0 3.43128e-17 0 1.89203e-10 0 0 
1552.11 0.00245628 -0.0048291 -0.0048291 0 0 0 -8.06905e-12 -2.17121 -2.17121 0 3.43128e-17 0 1.89775e-10 0 0 
1552.17 0.00245628 -0.0048291 -0.0048291 0 0 0 -7.79926e-12 -2.17121 -2.17121 0 3.43128e-17 0 1.90346e-10 0 0 
1552.22 0.00245628 -0.0048291 -0.0048291 0 0 0 -7.61941e-12 -2.17121 -2.17121 0 3.43128e-17 0 1.90918e-10 0 0 
1552.28 0.00245628 -0.0048291 -0.0048291 0 0 0 -7.61941e-12 -2.17121 -2.17121 0 3.43128e-17 0 1.91489e-10 0 0 
1552.33 0.00245628 -0.0048291 -0.0048291 0 0 0 -7.79926e-12 -2.17121 -2.17121 0 3.43128e-17 0 1.92061e-10 0 0 
1552.39 0.00245628 -0.0048291 -0.0048291 0 0 0 -7.61941e-12 -2.17121 -2.17121 0 3.43128e-17 0 1.92632e-10 0 0 
1552.44 0.00245628 -0.0048291 -0.0048291 0 0 0 -7.52948e-12 -2.17121 -2.17121 0 3.43128e-17 0 1.93204e-10 0 0 
1552.5 0.00245628 -0.0048291 -0.0048291 0 0 0 -7.70933e-12 -2.17121 -2.17121 0 3.43128e-17 0 1.93775e-10 0 0 
1552.56 0.00245628 -0.0048291 -0.0048291 0 0 0 -7.61941e-12 -2.17121 -2.17121 0 3.43128e-17 0 1.94347e-10 0 0 
1552.61 0.00245628 -0.0048291 -0.0048291 0 0 0 -7.25969e-12 -2.17121 -2.17121 0 3.43128e-17 0 1.94918e-10 0 0 
1552.67 0.00245628 -0.0048291 -0.0048291 0 0 0 -7.25969e-12 -2.17121 -2.17121 0 3.43128e-17 0 1.9549e-10 0 0 
1552.72 0.00245628 -0.0048291 -0.0048291 0 0 0 -7.34962e-12 -2.17121 -2.17121 0 3.43128e-17 0 1.96061e-10 0 0 
1552.78 0.00245628 -0.0048291 -0.0048291 0 0 0 -7.07984e-12 -2.17121 -2.17121 0 3.43128e-17 0 1.96633e-10 0 0 
1552.83 0.00245628 -0.0048291 -0.0048291 0 0 0 -6.6302e-12 -2.17121 -2.17121 0 3.43128e-17 0 1.97204e-10 0 0 
1552.89 0.00245628 -0.0048291 -0.0048291 0 0 0 -6.54027e-12 -2.17121 -2.17121 0 3.43128e-17 0 1.97776e-10 0 0 
1552.94 0.00245628 -0.0048291 -0.0048291 0 0 0 -7.07984e-12 -2.17121 -2.17121 0 3.43128e-17 0 1.98347e-10 0 0 
1553 0.00245628 -0.0048291 -0.0048291 0 0 0 -7.34962e-12 -2.17121 -2.17121 0 3.43128e-17 0 1.98919e-10 0 0 
1553 -1.64313e-14 0 0 0 0 0 -6.54952e-12 -1.70886e-12 -1.70886e-12 0 -1.16751e-28 0 1.98919e-10 0 0 
1553.06 -1.64313e-14 0 0 0 0 0 -6.54952e-12 -1.70886e-12 -1.70886e-12 0 -1.16751e-28 0 1.98919e-10 0 0 
1553.11 -1.68754e-14 0 0 0 0 0 -6.72653e-12 -1.75504e-12 -1.75504e-12 0 -1.19907e-28 0 1.98919e-10 0 0 
1553.17 -1.68754e-14 0 0 0 0 0 -6.72653e-12 -1.75504e-12 -1.75504e-12 0 -1.19907e-28 0 1.98919e-10 0 0 
1553.22 -1.68754e-14 0 0 0 0 0 -6.72653e-12 -1.75504e-12 -1.75504e-12 0 -1.19907e-28 0 1.98919e-10 0 0 
1553.28 -1.68754e-14 0 0 0 0 0 -6.72653e-12 -1.75504e-12 -1.75504e-12 0 -1.19907e-28 0 1.98919e-10 0 0 
1553.33 -1.64313e-14 0 0 0 0 0 -6.54952e-12 -1.70886e-12 -1.70886e-12 0 -1.16751e-28 0 1.98919e-10 0 0 
1553.39 -1.66533e-14 0 0 0 0 0 -6.63802e-12 -1.73195e-12 -1.73195e-12 0 -1.18329e-28 0 1.98919e-10 0 0 
1553.44 -1.73195e-14 0 0 0 0 0 -6.90354e-12 -1.80123e-12 -1.80123e-12 0 -1.23062e-28 0 1.98919e-10 0 0 
1553.5 -1.77636e-14 0 0 0 0 0 -7.08056e-12 -1.84741e-12 -1.84741e-12 0 -1.26218e-28 0 1.98919e-10 0 0 
1553.55 -1.84297e-14 0 0 0 0 0 -7.34608e-12 -1.91669e-12 -1.91669e-12 0 -1.30951e-28 0 1.98919e-10 0 0 
1553.61 -1.82077e-14 0 0 0 0 0 -7.25757e-12 -1.8936e-12 -1.8936e-12 0 -1.29373e-28 0 1.98919e-10 0 0 
1553.66 -1.77636e-14 0 0 0 0 0 -7.08056e-12 -1.84741e-12 -1.84741e-12 0 -1.26218e-28 0 1.98919e-10 0 0 
1553.72 -1.75415e-14 0 0 0 0 0 -6.99205e-12 -1.82432e-12 -1.82432e-12 0 -1.2464e-28 0 1.98919e-10 0 0 
1553.77 -1.73195e-14 0 0 0 0 0 -6.90354e-12 -1.80123e-12 -1.80123e-12 0 -1.23062e-28 0 1.98919e-10 0 0 
1553.83 -1.77636e-14 0 0 0 0 0 -7.08056e-12 -1.84741e-12 -1.84741e-12 0 -1.26218e-28 0 1.98919e-10 0 0 
1553.88 -1.77636e-14 0 0 0 0 0 -7.08056e-12 -1.84741e-12 -1.84741e-12 0 -1.26218e-28 0 1.98919e-10 0 0 
1553.94 -1.77636e-14 0 0 0 0 0 -7.08056e-12 -1.84741e-12 -1.84741e-12 0 -1.26218e-28 0 1.98919e-10 0 0 
1553.99 -1.82077e-14 0 0 0 0 0 -7.25757e-12 -1.8936e-12 -1.8936e-12 0 -1.29373e-28 0 1.98919e-10 0 0 
1554.05 -1.79856e-14 0 0 0 0 0 -7.16907e-12 -1.8705e-12 -1.8705e-12 0 -1.27795e-28 0 1.98919e-10 0 0 
1554.1 -1.75415e-14 0 0 0 0 0 -6.99205e-12 -1.82432e-12 -1.82432e-12 0 -1.2464e-28 0 1.98919e-10 0 0 
1554.16 -1.73195e-14 0 0 0 0 0 -6.90354e-12 -1.80123e-12 -1.80123e-12 0 -1.23062e-28 0 1.98919e-10 0 0 
1554.21 -1.70974e-14 0 0 0 0 0 -6.81504e-12 -1.77813e-12 -1.77813e-12 0 -1.21485e-28 0 1.98919e-10 0 0 
1554.27 -1.75415e-14 0 0 0 0 0 -6.99205e-12 -1.82432e-12 -1.82432e-12 0 -1.2464e-28 0 1.98919e-10 0 0 
1554.32 -1.82077e-14 0 0 0 0 0 -7.25757e-12 -1.8936e-12 -1.8936e-12 0 -1.29373e-28 0 1.98919e-10 0 0 
1554.38 -1.86517e-14 0 0 0 0 0 -7.43459e-12 -1.93978e-12 -1.93978e-12 0 -1.32529e-28 0 1.98919e-10 0 0 
1554.43 -1.88738e-14 0 0 0 0 0 -7.52309e-12 -1.96287e-12 -1.96287e-12 0 -1.34106e-28 0 1.98919e-10 0 0 
1554.49 -1.88738e-14 0 0 0 0 0 -7.52309e-12 -1.96287e-12 -1.96287e-12 0 -1.34106e-28 0 1.98919e-10 0 0 
1554.54 -1.86517e-14 0 0 0 0 0 -7.43459e-12 -1.93978e-12 -1.93978e-12 0 -1.32529e-28 0 1.98919e-10 0 0 
1554.6 -1.84297e-14 0 0 0 0 0 -7.34608e-12 -1.91669e-12 -1.91669e-12 0 -1.30951e-28 0 1.98919e-10 0 0 
1554.65 -1.88738e-14 0 0 0 0 0 -7.52309e-12 -1.96287e-12 -1.96287e-12 0 -1.34106e-28 0 1.98919e-10 0 0 
1554.71 -1.90958e-14 0 0 0 0 0 -7.6116e-12 -1.98597e-12 -1.98597e-12 0 -1.35684e-28 0 1.98919e-10 0 0 
1554.76 -1.88738e-14 0 0 0 0 0 -7.52309e-12 -1.96287e-12 -1.96287e-12 0 -1.34106e-28 0 1.98919e-10 0 0 
1554.82 -1.88738e-14 0 0 0 0 0 -7.52309e-12 -1.96287e-12 -1.96287e-12 0 -1.34106e-28 0 1.98919e-10 0 0 
1554.87 -1.88738e-14 0 0 0 0 0 -7.52309e-12 -1.96287e-12 -1.96287e-12 0 -1.34106e-28 0 1.98919e-10 0 0 
1554.93 -1.84297e-14 0 0 0 0 0 -7.34608e-12 -1.91669e-12 -1.91669e-12 0 -1.30951e-28 0 1.98919e-10 0 0 
1554.98 -1.75415e-14 0 0 0 0 0 -6.99205e-12 -1.82432e-12 -1.82432e-12 0 -1.2464e-28 0 1.98919e-10 0 0 
1555.04 -1.75415e-14 0 0 0 0 0 -6.99205e-12 -1.82432e-12 -1.82432e-12 0 -1.2464e-28 0 1.98919e-10 0 0 
1555.09 -1.70974e-14 0 0 0 0 0 -6.81504e-12 -1.77813e-12 -1.77813e-12 0 -1.21485e-28 0 1.98919e-10 0 0 
1555.15 -1.64313e-14 0 0 0 0 0 -6.54952e-12 -1.70886e-12 -1.70886e-12 0 -1.16751e-28 0 1.98919e-10 0 0 
1555.2 -1.68754e-14 0 0 0 0 0 -6.72653e-12 -1.75504e-12 -1.75504e-12 0 -1.19907e-28 0 1.98919e-10 0 0 
1555.26 -1.75415e-14 0 0 0 0 0 -6.99205e-12 -1.82432e-12 -1.82432e-12 0 -1.2464e-28 0 1.98919e-10 0 0 
1555.31 -1.82077e-14 0 0 0 0 0 -7.25757e-12 -1.8936e-12 -1.8936e-12 0 -1.29373e-28 0 1.98919e-10 0 0 
1555.37 -1.88738e-14 0 0 0 0 0 -7.52309e-12 -1.96287e-12 -1.96287e-12 0 -1.34106e-28 0 1.98919e-10 0 0 
1555.42 -1.88738e-14 0 0 0 0 0 -7.52309e-12 -1.96287e-12 -1.96287e-12 0 -1.34106e-28 0 1.98919e-10 0 0 
1555.48 -1.90958e-14 0 0 0 0 0 -7.6116e-12 -1.98597e-12 -1.98597e-12 0 -1.35684e-28 0 1.98919e-10 0 0 
1555.53 -1.9984e-14 0 0 0 0 0 -7.96563e-12 -2.07834e-12 -2.07834e-12 0 -1.41995e-28 0 1.98919e-10 0 0 
1555.59 -1.9762e-14 0 0 0 0 0 -7.87712e-12 -2.05524e-12 -2.05524e-12 0 -1.40417e-28 0 1.98919e-10 0 0 
1555.64 -1.93179e-14 0 0 0 0 0 -7.70011e-12 -2.00906e-12 -2.00906e-12 0 -1.37262e-28 0 1.98919e-10 0 0 
1555.7 -1.9762e-14 0 0 0 0 0 -7.87712e-12 -2.05524e-12 -2.05524e-12 0 -1.40417e-28 0 1.98919e-10 0 0 
1555.75 -1.9762e-14 0 0 0 0 0 -7.87712e-12 -2.05524e-12 -2.05524e-12 0 -1.40417e-28 0 1.98919e-10 0 0 
1555.81 -1.86517e-14 0 0 0 0 0 -7.43459e-12 -1.93978e-12 -1.93978e-12 0 -1.32529e-28 0 1.98919e-10 0 0 
1555.86 -1.79856e-14 0 0 0 0 0 -7.16907e-12 -1.8705e-12 -1.8705e-12 0 -1.27795e-28 0 1.98919e-10 0 0 
1555.92 -1.79856e-14 0 0 0 0 0 -7.16907e-12 -1.8705e-12 -1.8705e-12 0 -1.27795e-28 0 1.98919e-10 0 0 
1555.97 -1.75415e-14 0 0 0 0 0 -6.99205e-12 -1.82432e-12 -1.82432e-12 0 -1.2464e-28 0 1.98919e-10 0 0 
1556.03 -1.68754e-14 0 0 0 0 0 -6.72653e-12 -1.75504e-12 -1.75504e-12 0 -1.19907e-28 0 1.98919e-10 0 0 
1556.08 -1.64313e-14 0 0 0 0 0 -6.54952e-12 -1.70886e-12 -1.70886e-12 0 -1.16751e-28 0 1.98919e-10 0 0 
1556.14 -1.64313e-14 0 0 0 0 0 -6.54952e-12 -1.70886e-12 -1.70886e-12 0 -1.16751e-28 0 1.98919e-10 0 0 
1556.19 -1.55431e-14 0 0 0 0 0 -6.19549e-12 -1.61648e-12 -1.61648e-12 0 -1.10441e-28 0 1.98919e-10 0 0 
1556.25 -1.44329e-14 0 0 0 0 0 -5.75295e-12 -1.50102e-12 -1.50102e-12 0 -1.02552e-28 0 1.98919e-10 0 0 
1556.3 -1.44329e-14 0 0 0 0 0 -5.75295e-12 -1.50102e-12 -1.50102e-12 0 -1.02552e-28 0 1.98919e-10 0 0 
1556.36 -1.44329e-14 0 0 0 0 0 -5.75295e-12 -1.50102e-12 -1.50102e-12 0 -1.02552e-28 0 1.98919e-10 0 0 
1556.41 -1.37668e-14 0 0 0 0 0 -5.48743e-12 -1.43174e-12 -1.43174e-12 0 -9.78188e-29 0 1.98919e-10 0 0 
1556.47 -1.33227e-14 0 0 0 0 0 -5.31042e-12 -1.38556e-12 -1.38556e-12 0 -9.46633e-29 0 1.98919e-10 0 0 
1556.52 -1.31006e-14 0 0 0 0 0 -5.22191e-12 -1.36247e-12 -1.36247e-12 0 -9.30856e-29 0 1.98919e-10 0 0 
1556.58 -1.28786e-14 0 0 0 0 0 -5.1334e-12 -1.33937e-12 -1.33937e-12 0 -9.15079e-29 0 1.98919e-10 0 0 
1556.63 -1.22125e-14 0 0 0 0 0 -4.86788e-12 -1.2701e-12 -1.2701e-12 0 -8.67747e-29 0 1.98919e-10 0 0 
1556.69 -1.13243e-14 0 0 0 0 0 -4.51386e-12 -1.17772e-12 -1.17772e-12 0 -8.04638e-29 0 1.98919e-10 0 0 
1556.74 -1.13243e-14 0 0 0 0 0 -4.51386e-12 -1.17772e-12 -1.17772e-12 0 -8.04638e-29 0 1.98919e-10 0 0 
1556.8 -1.17684e-14 0 0 0 0 0 -4.69087e-12 -1.22391e-12 -1.22391e-12 0 -8.36193e-29 0 1.98919e-10 0 0 
1556.85 -1.17684e-14 0 0 0 0 0 -4.69087e-12 -1.22391e-12 -1.22391e-12 0 -8.36193e-29 0 1.98919e-10 0 0 
1556.91 -1.15463e-14 0 0 0 0 0 -4.60236e-12 -1.20082e-12 -1.20082e-12 0 -8.20415e-29 0 1.98919e-10 0 0 
1556.96 -1.19904e-14 0 0 0 0 0 -4.77938e-12 -1.247e-12 -1.247e-12 0 -8.5197e-29 0 1.98919e-10 0 0 
1557.02 -1.17684e-14 0 0 0 0 0 -4.69087e-12 -1.22391e-12 -1.22391e-12 0 -8.36193e-29 0 1.98919e-10 0 0 
1557.07 -1.11022e-14 0 0 0 0 0 -4.42535e-12 -1.15463e-12 -1.15463e-12 0 -7.88861e-29 0 1.98919e-10 0 0 
1557.13 -1.11022e-14 0 0 0 0 0 -4.42535e-12 -1.15463e-12 -1.15463e-12 0 -7.88861e-29 0 1.98919e-10 0 0 
1557.18 -1.17684e-14 0 0 0 0 0 -4.69087e-12 -1.22391e-12 -1.22391e-12 0 -8.36193e-29 0 1.98919e-10 0 0 
1557.24 -1.19904e-14 0 0 0 0 0 -4.77938e-12 -1.247e-12 -1.247e-12 0 -8.5197e-29 0 1.98919e-10 0 0 
1557.29 -1.15463e-14 0 0 0 0 0 -4.60236e-12 -1.20082e-12 -1.20082e-12 0 -8.20415e-29 0 1.98919e-10 0 0 
1557.35 -1.11022e-14 0 0 0 0 0 -4.42535e-12 -1.15463e-12 -1.15463e-12 0 -7.88861e-29 0 1.98919e-10 0 0 
1557.4 -1.04361e-14 0 0 0 0 0 -4.15983e-12 -1.08535e-12 -1.08535e-12 0 -7.41529e-29 0 1.98919e-10 0 0 
1557.46 -1.08802e-14 0 0 0 0 0 -4.33684e-12 -1.13154e-12 -1.13154e-12 0 -7.73084e-29 0 1.98919e-10 0 0 
1557.51 -1.08802e-14 0 0 0 0 0 -4.33684e-12 -1.13154e-12 -1.13154e-12 0 -7.73084e-29 0 1.98919e-10 0 0 
1557.57 -1.02141e-14 0 0 0 0 0 -4.07132e-12 -1.06226e-12 -1.06226e-12 0 -7.25752e-29 0 1.98919e-10 0 0 
1557.62 -9.99201e-15 0 0 0 0 0 -3.98281e-12 -1.03917e-12 -1.03917e-12 0 -7.09975e-29 0 1.98919e-10 0 0 
1557.68 -9.99201e-15 0 0 0 0 0 -3.98281e-12 -1.03917e-12 -1.03917e-12 0 -7.09975e-29 0 1.98919e-10 0 0 
1557.73 -9.76996e-15 0 0 0 0 0 -3.89431e-12 -1.01608e-12 -1.01608e-12 0 -6.94198e-29 0 1.98919e-10 0 0 
1557.79 -9.10383e-15 0 0 0 0 0 -3.62879e-12 -9.46798e-13 -9.46798e-13 0 -6.46866e-29 0 1.98919e-10 0 0 
1557.84 -9.10383e-15 0 0 0 0 0 -3.62879e-12 -9.46798e-13 -9.46798e-13 0 -6.46866e-29 0 1.98919e-10 0 0 
1557.9 -9.54792e-15 0 0 0 0 0 -3.8058e-12 -9.92983e-13 -9.92983e-13 0 -6.7842e-29 0 1.98919e-10 0 0 
1557.95 -9.32587e-15 0 0 0 0 0 -3.71729e-12 -9.69891e-13 -9.69891e-13 0 -6.62643e-29 0 1.98919e-10 0 0 
1558.01 -9.32587e-15 0 0 0 0 0 -3.71729e-12 -9.69891e-13 -9.69891e-13 0 -6.62643e-29 0 1.98919e-10 0 0 
1558.06 -9.99201e-15 0 0 0 0 0 -3.98281e-12 -1.03917e-12 -1.03917e-12 0 -7.09975e-29 0 1.98919e-10 0 0 
1558.12 -9.76996e-15 0 0 0 0 0 -3.89431e-12 -1.01608e-12 -1.01608e-12 0 -6.94198e-29 0 1.98919e-10 0 0 
1558.17 -9.54792e-15 0 0 0 0 0 -3.8058e-12 -9.92983e-13 -9.92983e-13 0 -6.7842e-29 0 1.98919e-10 0 0 
1558.23 -9.76996e-15 0 0 0 0 0 -3.89431e-12 -1.01608e-12 -1.01608e-12 0 -6.94198e-29 0 1.98919e-10 0 0 
1558.28 -9.76996e-15 0 0 0 0 0 -3.89431e-12 -1.01608e-12 -1.01608e-12 0 -6.94198e-29 0 1.98919e-10 0 0 
1558.34 -1.04361e-14 0 0 0 0 0 -4.15983e-12 -1.08535e-12 -1.08535e-12 0 -7.41529e-29 0 1.98919e-10 0 0 
1558.39 -1.08802e-14 0 0 0 0 0 -4.33684e-12 -1.13154e-12 -1.13154e-12 0 -7.73084e-29 0 1.98919e-10 0 0 
1558.45 -1.08802e-14 0 0 0 0 0 -4.33684e-12 -1.13154e-12 -1.13154e-12 0 -7.73084e-29 0 1.98919e-10 0 0 
1558.5 -1.11022e-14 0 0 0 0 0 -4.42535e-12 -1.15463e-12 -1.15463e-12 0 -7.88861e-29 0 1.98919e-10 0 0 
1558.56 -1.13243e-14 0 0 0 0 0 -4.51386e-12 -1.17772e-12 -1.17772e-12 0 -8.04638e-29 0 1.98919e-10 0 0 
1558.61 -1.13243e-14 0 0 0 0 0 -4.51386e-12 -1.17772e-12 -1.17772e-12 0 -8.04638e-29 0 1.98919e-10 0 0 
1558.67 -1.06581e-14 0 0 0 0 0 -4.24834e-12 -1.10845e-12 -1.10845e-12 0 -7.57306e-29 0 1.98919e-10 0 0 
1558.72 -1.06581e-14 0 0 0 0 0 -4.24834e-12 -1.10845e-12 -1.10845e-12 0 -7.57306e-29 0 1.98919e-10 0 0 
1558.78 -1.15463e-14 0 0 0 0 0 -4.60236e-12 -1.20082e-12 -1.20082e-12 0 -8.20415e-29 0 1.98919e-10 0 0 
1558.83 -1.17684e-14 0 0 0 0 0 -4.69087e-12 -1.22391e-12 -1.22391e-12 0 -8.36193e-29 0 1.98919e-10 0 0 
1558.89 -1.15463e-14 0 0 0 0 0 -4.60236e-12 -1.20082e-12 -1.20082e-12 0 -8.20415e-29 0 1.98919e-10 0 0 
1558.94 -1.15463e-14 0 0 0 0 0 -4.60236e-12 -1.20082e-12 -1.20082e-12 0 -8.20415e-29 0 1.98919e-10 0 0 
1559 -1.15463e-14 0 0 0 0 0 -4.60236e-12 -1.20082e-12 -1.20082e-12 0 -8.20415e-29 0 1.98919e-10 0 0 
1559 -9.76996e-15 0 0 0 0 0 -3.89431e-12 -1.01608e-12 -1.01608e-12 0 -6.94198e-29 0 1.98919e-10 0 0 
1559.06 -1.04361e-14 0 0 0 0 0 -4.15983e-12 -1.08535e-12 -1.08535e-12 0 -7.41529e-29 0 1.98919e-10 0 0 
1559.11 -1.08802e-14 0 0 0 0 0 -4.33684e-12 -1.13154e-12 -1.13154e-12 0 -7.73084e-29 0 1.98919e-10 0 0 
1559.17 -1.04361e-14 0 0 0 0 0 -4.15983e-12 -1.08535e-12 -1.08535e-12 0 -7.41529e-29 0 1.98919e-10 0 0 
1559.22 -1.08802e-14 0 0 0 0 0 -4.33684e-12 -1.13154e-12 -1.13154e-12 0 -7.73084e-29 0 1.98919e-10 0 0 
1559.28 -1.11022e-14 0 0 0 0 0 -4.42535e-12 -1.15463e-12 -1.15463e-12 0 -7.88861e-29 0 1.98919e-10 0 0 
1559.33 -1.13243e-14 0 0 0 0 0 -4.51386e-12 -1.17772e-12 -1.17772e-12 0 -8.04638e-29 0 1.98919e-10 0 0 
1559.39 -1.17684e-14 0 0 0 0 0 -4.69087e-12 -1.22391e-12 -1.22391e-12 0 -8.36193e-29 0 1.98919e-10 0 0 
1559.44 -1.11022e-14 0 0 0 0 0 -4.42535e-12 -1.15463e-12 -1.15463e-12 0 -7.88861e-29 0 1.98919e-10 0 0 
1559.5 -1.06581e-14 0 0 0 0 0 -4.24834e-12 -1.10845e-12 -1.10845e-12 0 -7.57306e-29 0 1.98919e-10 0 0 
1559.55 -1.08802e-14 0 0 0 0 0 -4.33684e-12 -1.13154e-12 -1.13154e-12 0 -7.73084e-29 0 1.98919e-10 0 0 
1559.61 -1.15463e-14 0 0 0 0 0 -4.60236e-12 -1.20082e-12 -1.20082e-12 0 -8.20415e-29 0 1.98919e-10 0 0 
1559.66 -1.13243e-14 0 0 0 0 0 -4.51386e-12 -1.17772e-12 -1.17772e-12 0 -8.04638e-29 0 1.98919e-10 0 0 
1559.72 -1.06581e-14 0 0 0 0 0 -4.24834e-12 -1.10845e-12 -1.10845e-12 0 -7.57306e-29 0 1.98919e-10 0 0 
1559.77 -1.06581e-14 0 0 0 0 0 -4.24834e-12 -1.10845e-12 -1.10845e-12 0 -7.57306e-29 0 1.98919e-10 0 0 
1559.83 -1.06581e-14 0 0 0 0 0 -4.24834e-12 -1.10845e-12 -1.10845e-12 0 -7.57306e-29 0 1.98919e-10 0 0 
1559.88 -1.06581e-14 0 0 0 0 0 -4.24834e-12 -1.10845e-12 -1.10845e-12 0 -7.57306e-29 0 1.98919e-10 0 0 
1559.94 -1.11022e-14 0 0 0 0 0 -4.42535e-12 -1.15463e-12 -1.15463e-12 0 -7.88861e-29 0 1.98919e-10 0 0 
1559.99 -1.15463e-14 0 0 0 0 0 -4.60236e-12 -1.20082e-12 -1.20082e-12 0 -8.20415e-29 0 1.98919e-10 0 0 
1560.05 -1.17684e-14 0 0 0 0 0 -4.69087e-12 -1.22391e-12 -1.22391e-12 0 -8.36193e-29 0 1.98919e-10 0 0 
1560.1 -1.17684e-14 0 0 0 0 0 -4.69087e-12 -1.22391e-12 -1.22391e-12 0 -8.36193e-29 0 1.98919e-10 0 0 
1560.16 -1.13243e-14 0 0 0 0 0 -4.51386e-12 -1.17772e-12 -1.17772e-12 0 -8.04638e-29 0 1.98919e-10 0 0 
1560.21 -1.15463e-14 0 0 0 0 0 -4.60236e-12 -1.20082e-12 -1.20082e-12 0 -8.20415e-29 0 1.98919e-10 0 0 
1560.27 -1.17684e-14 0 0 0 0 0 -4.69087e-12 -1.22391e-12 -1.22391e-12 0 -8.36193e-29 0 1.98919e-10 0 0 
1560.32 -1.15463e-14 0 0 0 0 0 -4.60236e-12 -1.20082e-12 -1.20082e-12 0 -8.20415e-29 0 1.98919e-10 0 0 
1560.38 -1.15463e-14 0 0 0 0 0 -4.60236e-12 -1.20082e-12 -1.20082e-12 0 -8.20415e-29 0 1.98919e-10 0 0 
1560.43 -1.19904e-14 0 0 0 0 0 -4.77938e-12 -1.247e-12 -1.247e-12 0 -8.5197e-29 0 1.98919e-10 0 0 
1560.49 -1.24345e-14 0 0 0 0 0 -4.95639e-12 -1.29319e-12 -1.29319e-12 0 -8.83524e-29 0 1.98919e-10 0 0 
1560.54 -1.26565e-14 0 0 0 0 0 -5.0449e-12 -1.31628e-12 -1.31628e-12 0 -8.99301e-29 0 1.98919e-10 0 0 
1560.6 -1.26565e-14 0 0 0 0 0 -5.0449e-12 -1.31628e-12 -1.31628e-12 0 -8.99301e-29 0 1.98919e-10 0 0 
1560.65 -1.22125e-14 0 0 0 0 0 -4.86788e-12 -1.2701e-12 -1.2701e-12 0 -8.67747e-29 0 1.98919e-10 0 0 
1560.71 -1.17684e-14 0 0 0 0 0 -4.69087e-12 -1.22391e-12 -1.22391e-12 0 -8.36193e-29 0 1.98919e-10 0 0 
1560.76 -1.11022e-14 0 0 0 0 0 -4.42535e-12 -1.15463e-12 -1.15463e-12 0 -7.88861e-29 0 1.98919e-10 0 0 
1560.82 -1.13243e-14 0 0 0 0 0 -4.51386e-12 -1.17772e-12 -1.17772e-12 0 -8.04638e-29 0 1.98919e-10 0 0 
1560.87 -1.24345e-14 0 0 0 0 0 -4.95639e-12 -1.29319e-12 -1.29319e-12 0 -8.83524e-29 0 1.98919e-10 0 0 
1560.93 -1.28786e-14 0 0 0 0 0 -5.1334e-12 -1.33937e-12 -1.33937e-12 0 -9.15079e-29 0 1.98919e-10 0 0 
1560.98 -1.28786e-14 0 0 0 0 0 -5.1334e-12 -1.33937e-12 -1.33937e-12 0 -9.15079e-29 0 1.98919e-10 0 0 
1561.04 -1.28786e-14 0 0 0 0 0 -5.1334e-12 -1.33937e-12 -1.33937e-12 0 -9.15079e-29 0 1.98919e-10 0 0 
1561.09 -1.24345e-14 0 0 0 0 0 -4.95639e-12 -1.29319e-12 -1.29319e-12 0 -8.83524e-29 0 1.98919e-10 0 0 
1561.15 -1.22125e-14 0 0 0 0 0 -4.86788e-12 -1.2701e-12 -1.2701e-12 0 -8.67747e-29 0 1.98919e-10 0 0 
1561.2 -1.26565e-14 0 0 0 0 0 -5.0449e-12 -1.31628e-12 -1.31628e-12 0 -8.99301e-29 0 1.98919e-10 0 0 
1561.26 -1.28786e-14 0 0 0 0 0 -5.1334e-12 -1.33937e-12 -1.33937e-12 0 -9.15079e-29 0 1.98919e-10 0 0 
1561.31 -1.31006e-14 0 0 0 0 0 -5.22191e-12 -1.36247e-12 -1.36247e-12 0 -9.30856e-29 0 1.98919e-10 0 0 
1561.37 -1.37668e-14 0 0 0 0 0 -5.48743e-12 -1.43174e-12 -1.43174e-12 0 -9.78188e-29 0 1.98919e-10 0 0 
1561.42 -1.39888e-14 0 0 0 0 0 -5.57594e-12 -1.45484e-12 -1.45484e-12 0 -9.93965e-29 0 1.98919e-10 0 0 
1561.48 -1.37668e-14 0 0 0 0 0 -5.48743e-12 -1.43174e-12 -1.43174e-12 0 -9.78188e-29 0 1.98919e-10 0 0 
1561.53 -1.44329e-14 0 0 0 0 0 -5.75295e-12 -1.50102e-12 -1.50102e-12 0 -1.02552e-28 0 1.98919e-10 0 0 
1561.59 -1.5099e-14 0 0 0 0 0 -6.01847e-12 -1.5703e-12 -1.5703e-12 0 -1.07285e-28 0 1.98919e-10 0 0 
1561.64 -1.46549e-14 0 0 0 0 0 -5.84146e-12 -1.52411e-12 -1.52411e-12 0 -1.0413e-28 0 1.98919e-10 0 0 
1561.7 -1.33227e-14 0 0 0 0 0 -5.31042e-12 -1.38556e-12 -1.38556e-12 0 -9.46633e-29 0 1.98919e-10 0 0 
1561.75 -1.24345e-14 0 0 0 0 0 -4.95639e-12 -1.29319e-12 -1.29319e-12 0 -8.83524e-29 0 1.98919e-10 0 0 
1561.81 -1.19904e-14 0 0 0 0 0 -4.77938e-12 -1.247e-12 -1.247e-12 0 -8.5197e-29 0 1.98919e-10 0 0 
1561.86 -1.15463e-14 0 0 0 0 0 -4.60236e-12 -1.20082e-12 -1.20082e-12 0 -8.20415e-29 0 1.98919e-10 0 0 
1561.92 -1.13243e-14 0 0 0 0 0 -4.51386e-12 -1.17772e-12 -1.17772e-12 0 -8.04638e-29 0 1.98919e-10 0 0 
1561.97 -1.15463e-14 0 0 0 0 0 -4.60236e-12 -1.20082e-12 -1.20082e-12 0 -8.20415e-29 0 1.98919e-10 0 0 
1562.03 -1.19904e-14 0 0 0 0 0 -4.77938e-12 -1.247e-12 -1.247e-12 0 -8.5197e-29 0 1.98919e-10 0 0 
1562.08 -1.15463e-14 0 0 0 0 0 -4.60236e-12 -1.20082e-12 -1.20082e-12 0 -8.20415e-29 0 1.98919e-10 0 0 
1562.14 -1.08802e-14 0 0 0 0 0 -4.33684e-12 -1.13154e-12 -1.13154e-12 0 -7.73084e-29 0 1.98919e-10 0 0 
1562.19 -1.08802e-14 0 0 0 0 0 -4.33684e-12 -1.13154e-12 -1.13154e-12 0 -7.73084e-29 0 1.98919e-10 0 0 
1562.25 -1.08802e-14 0 0 0 0 0 -4.33684e-12 -1.13154e-12 -1.13154e-12 0 -7.73084e-29 0 1.98919e-10 0 0 
1562.3 -9.99201e-15 0 0 0 0 0 -3.98281e-12 -1.03917e-12 -1.03917e-12 0 -7.09975e-29 0 1.98919e-10 0 0 
1562.36 -9.54792e-15 0 0 0 0 0 -3.8058e-12 -9.92983e-13 -9.92983e-13 0 -6.7842e-29 0 1.98919e-10 0 0 
1562.41 -9.32587e-15 0 0 0 0 0 -3.71729e-12 -9.69891e-13 -9.69891e-13 0 -6.62643e-29 0 1.98919e-10 0 0 
1562.47 -8.43769e-15 0 0 0 0 0 -3.36327e-12 -8.7752e-13 -8.7752e-13 0 -5.99534e-29 0 1.98919e-10 0 0 
1562.52 -7.54952e-15 0 0 0 0 0 -3.00924e-12 -7.8515e-13 -7.8515e-13 0 -5.36425e-29 0 1.98919e-10 0 0 
1562.58 -7.54952e-15 0 0 0 0 0 -3.00924e-12 -7.8515e-13 -7.8515e-13 0 -5.36425e-29 0 1.98919e-10 0 0 
1562.63 -8.43769e-15 0 0 0 0 0 -3.36327e-12 -8.7752e-13 -8.7752e-13 0 -5.99534e-29 0 1.98919e-10 0 0 
1562.69 -8.88178e-15 0 0 0 0 0 -3.54028e-12 -9.23706e-13 -9.23706e-13 0 -6.31089e-29 0 1.98919e-10 0 0 
1562.74 -8.43769e-15 0 0 0 0 0 -3.36327e-12 -8.7752e-13 -8.7752e-13 0 -5.99534e-29 0 1.98919e-10 0 0 
1562.8 -8.43769e-15 0 0 0 0 0 -3.36327e-12 -8.7752e-13 -8.7752e-13 0 -5.99534e-29 0 1.98919e-10 0 0 
1562.85 -9.32587e-15 0 0 0 0 0 -3.71729e-12 -9.69891e-13 -9.69891e-13 0 -6.62643e-29 0 1.98919e-10 0 0 
1562.91 -9.32587e-15 0 0 0 0 0 -3.71729e-12 -9.69891e-13 -9.69891e-13 0 -6.62643e-29 0 1.98919e-10 0 0 
1562.96 -8.65974e-15 0 0 0 0 0 -3.45177e-12 -9.00613e-13 -9.00613e-13 0 -6.15312e-29 0 1.98919e-10 0 0 
1563.02 -8.88178e-15 0 0 0 0 0 -3.54028e-12 -9.23706e-13 -9.23706e-13 0 -6.31089e-29 0 1.98919e-10 0 0 
1563.07 -9.32587e-15 0 0 0 0 0 -3.71729e-12 -9.69891e-13 -9.69891e-13 0 -6.62643e-29 0 1.98919e-10 0 0 
1563.13 -9.54792e-15 0 0 0 0 0 -3.8058e-12 -9.92983e-13 -9.92983e-13 0 -6.7842e-29 0 1.98919e-10 0 0 
1563.18 -9.32587e-15 0 0 0 0 0 -3.71729e-12 -9.69891e-13 -9.69891e-13 0 -6.62643e-29 0 1.98919e-10 0 0 
1563.24 -8.88178e-15 0 0 0 0 0 -3.54028e-12 -9.23706e-13 -9.23706e-13 0 -6.31089e-29 0 1.98919e-10 0 0 
1563.29 -9.54792e-15 0 0 0 0 0 -3.8058e-12 -9.92983e-13 -9.92983e-13 0 -6.7842e-29 0 1.98919e-10 0 0 
1563.35 -9.99201e-15 0 0 0 0 0 -3.98281e-12 -1.03917e-12 -1.03917e-12 0 -7.09975e-29 0 1.98919e-10 0 0 
1563.4 -9.99201e-15 0 0 0 0 0 -3.98281e-12 -1.03917e-12 -1.03917e-12 0 -7.09975e-29 0 1.98919e-10 0 0 
1563.46 -1.04361e-14 0 0 0 0 0 -4.15983e-12 -1.08535e-12 -1.08535e-12 0 -7.41529e-29 0 1.98919e-10 0 0 
1563.51 -1.06581e-14 0 0 0 0 0 -4.24834e-12 -1.10845e-12 -1.10845e-12 0 -7.57306e-29 0 1.98919e-10 0 0 
1563.57 -1.08802e-14 0 0 0 0 0 -4.33684e-12 -1.13154e-12 -1.13154e-12 0 -7.73084e-29 0 1.98919e-10 0 0 
1563.62 -1.13243e-14 0 0 0 0 0 -4.51386e-12 -1.17772e-12 -1.17772e-12 0 -8.04638e-29 0 1.98919e-10 0 0 
1563.68 -1.08802e-14 0 0 0 0 0 -4.33684e-12 -1.13154e-12 -1.13154e-12 0 -7.73084e-29 0 1.98919e-10 0 0 
1563.73 -1.02141e-14 0 0 0 0 0 -4.07132e-12 -1.06226e-12 -1.06226e-12 0 -7.25752e-29 0 1.98919e-10 0 0 
1563.79 -9.99201e-15 0 0 0 0 0 -3.98281e-12 -1.03917e-12 -1.03917e-12 0 -7.09975e-29 0 1.98919e-10 0 0 
1563.84 -9.54792e-15 0 0 0 0 0 -3.8058e-12 -9.92983e-13 -9.92983e-13 0 -6.7842e-29 0 1.98919e-10 0 0 
1563.9 -9.10383e-15 0 0 0 0 0 -3.62879e-12 -9.46798e-13 -9.46798e-13 0 -6.46866e-29 0 1.98919e-10 0 0 
1563.95 -9.10383e-15 0 0 0 0 0 -3.62879e-12 -9.46798e-13 -9.46798e-13 0 -6.46866e-29 0 1.98919e-10 0 0 
1564.01 -9.32587e-15 0 0 0 0 0 -3.71729e-12 -9.69891e-13 -9.69891e-13 0 -6.62643e-29 0 1.98919e-10 0 0 
1564.06 -9.10383e-15 0 0 0 0 0 -3.62879e-12 -9.46798e-13 -9.46798e-13 0 -6.46866e-29 0 1.98919e-10 0 0 
1564.12 -8.88178e-15 0 0 0 0 0 -3.54028e-12 -9.23706e-13 -9.23706e-13 0 -6.31089e-29 0 1.98919e-10 0 0 
1564.17 -8.88178e-15 0 0 0 0 0 -3.54028e-12 -9.23706e-13 -9.23706e-13 0 -6.31089e-29 0 1.98919e-10 0 0 
1564.23 -8.65974e-15 0 0 0 0 0 -3.45177e-12 -9.00613e-13 -9.00613e-13 0 -6.15312e-29 0 1.98919e-10 0 0 
1564.28 -8.88178e-15 0 0 0 0 0 -3.54028e-12 -9.23706e-13 -9.23706e-13 0 -6.31089e-29 0 1.98919e-10 0 0 
1564.34 -9.54792e-15 0 0 0 0 0 -3.8058e-12 -9.92983e-13 -9.92983e-13 0 -6.7842e-29 0 1.98919e-10 0 0 
1564.39 -9.32587e-15 0 0 0 0 0 -3.71729e-12 -9.69891e-13 -9.69891e-13 0 -6.62643e-29 0 1.98919e-10 0 0 
1564.45 -8.65974e-15 0 0 0 0 0 -3.45177e-12 -9.00613e-13 -9.00613e-13 0 -6.15312e-29 0 1.98919e-10 0 0 
1564.5 -8.43769e-15 0 0 0 0 0 -3.36327e-12 -8.7752e-13 -8.7752e-13 0 -5.99534e-29 0 1.98919e-10 0 0 
1564.56 -8.43769e-15 0 0 0 0 0 -3.36327e-12 -8.7752e-13 -8.7752e-13 0 -5.99534e-29 0 1.98919e-10 0 0 
1564.61 -8.88178e-15 0 0 0 0 0 -3.54028e-12 -9.23706e-13 -9.23706e-13 0 -6.31089e-29 0 1.98919e-10 0 0 
1564.67 -9.32587e-15 0 0 0 0 0 -3.71729e-12 -9.69891e-13 -9.69891e-13 0 -6.62643e-29 0 1.98919e-10 0 0 
1564.72 -9.54792e-15 0 0 0 0 0 -3.8058e-12 -9.92983e-13 -9.92983e-13 0 -6.7842e-29 0 1.98919e-10 0 0 
1564.78 -1.02141e-14 0 0 0 0 0 -4.07132e-12 -1.06226e-12 -1.06226e-12 0 -7.25752e-29 0 1.98919e-10 0 0 
1564.83 -1.02141e-14 0 0 0 0 0 -4.07132e-12 -1.06226e-12 -1.06226e-12 0 -7.25752e-29 0 1.98919e-10 0 0 
1564.89 -9.54792e-15 0 0 0 0 0 -3.8058e-12 -9.92983e-13 -9.92983e-13 0 -6.7842e-29 0 1.98919e-10 0 0 
1564.94 -9.76996e-15 0 0 0 0 0 -3.89431e-12 -1.01608e-12 -1.01608e-12 0 -6.94198e-29 0 1.98919e-10 0 0 
1565 -1.02141e-14 0 0 0 0 0 -4.07132e-12 -1.06226e-12 -1.06226e-12 0 -7.25752e-29 0 1.98919e-10 0 0 
1565 0.00245628 -0.0048291 -0.0048291 0 0 0 -3.39279e-12 -2.17121 -2.17121 0 3.43128e-17 0 1.98919e-10 0 0 
1565.06 0.00245628 -0.0048291 -0.0048291 0 0 0 -3.66257e-12 -2.17121 -2.17121 0 3.43128e-17 0 1.9949e-10 0 0 
1565.11 0.00245628 -0.0048291 -0.0048291 0 0 0 -3.7525e-12 -2.17121 -2.17121 0 3.43128e-17 0 2.00061e-10 0 0 
1565.17 0.00245628 -0.0048291 -0.0048291 0 0 0 -3.48271e-12 -2.17121 -2.17121 0 3.43128e-17 0 2.00633e-10 0 0 
1565.22 0.00245628 -0.0048291 -0.0048291 0 0 0 -3.30286e-12 -2.17121 -2.17121 0 3.43128e-17 0 2.01204e-10 0 0 
1565.28 0.00245628 -0.0048291 -0.0048291 0 0 0 -3.21293e-12 -2.17121 -2.17121 0 3.43128e-17 0 2.01776e-10 0 0 
1565.33 0.00245628 -0.0048291 -0.0048291 0 0 0 -3.03307e-12 -2.17121 -2.17121 0 3.43128e-17 0 2.02347e-10 0 0 
1565.39 0.00245628 -0.0048291 -0.0048291 0 0 0 -2.85322e-12 -2.17121 -2.17121 0 3.43128e-17 0 2.02919e-10 0 0 
1565.44 0.00245628 -0.0048291 -0.0048291 0 0 0 -2.58343e-12 -2.17121 -2.17121 0 3.43128e-17 0 2.0349e-10 0 0 
1565.5 0.00245628 -0.0048291 -0.0048291 0 0 0 -2.40358e-12 -2.17121 -2.17121 0 3.43128e-17 0 2.04062e-10 0 0 
1565.56 0.00245628 -0.0048291 -0.0048291 0 0 0 -2.58343e-12 -2.17121 -2.17121 0 3.43128e-17 0 2.04633e-10 0 0 
1565.61 0.00245628 -0.0048291 -0.0048291 0 0 0 -2.67336e-12 -2.17121 -2.17121 0 3.43128e-17 0 2.05205e-10 0 0 
1565.67 0.00245628 -0.0048291 -0.0048291 0 0 0 -2.40358e-12 -2.17121 -2.17121 0 3.43128e-17 0 2.05776e-10 0 0 
1565.72 0.00245628 -0.0048291 -0.0048291 0 0 0 -2.13379e-12 -2.17121 -2.17121 0 3.43128e-17 0 2.06348e-10 0 0 
1565.78 0.00245628 -0.0048291 -0.0048291 0 0 0 -2.22372e-12 -2.17121 -2.17121 0 3.43128e-17 0 2.06919e-10 0 0 
1565.83 0.00245628 -0.0048291 -0.0048291 0 0 0 -2.31365e-12 -2.17121 -2.17121 0 3.43128e-17 0 2.07491e-10 0 0 
1565.89 0.00245628 -0.0048291 -0.0048291 0 0 0 -2.04387e-12 -2.17121 -2.17121 0 3.43128e-17 0 2.08062e-10 0 0 
1565.94 0.00245628 -0.0048291 -0.0048291 0 0 0 -2.13379e-12 -2.17121 -2.17121 0 3.43128e-17 0 2.08634e-10 0 0 
1566 0.00245628 -0.0048291 -0.0048291 0 0 0 -2.31365e-12 -2.17121 -2.17121 0 3.43128e-17 0 2.09205e-10 0 0 
1566.06 0.00245628 -0.0048291 -0.0048291 0 0 0 -2.22372e-12 -2.17121 -2.17121 0 3.43128e-17 0 2.09777e-10 0 0 
1566.11 0.00245628 -0.0048291 -0.0048291 0 0 0 -2.13379e-12 -2.17121 -2.17121 0 3.43128e-17 0 2.10348e-10 0 0 
1566.17 0.00245628 -0.0048291 -0.0048291 0 0 0 -1.77408e-12 -2.17121 -2.17121 0 3.43128e-17 0 2.1092e-10 0 0 
1566.22 0.00245628 -0.0048291 -0.0048291 0 0 0 -1.68415e-12 -2.17121 -2.17121 0 3.43128e-17 0 2.11491e-10 0 0 
1566.28 0.00245628 -0.0048291 -0.0048291 0 0 0 -1.68415e-12 -2.17121 -2.17121 0 3.43128e-17 0 2.12062e-10 0 0 
1566.33 0.00245628 -0.0048291 -0.0048291 0 0 0 -1.5043e-12 -2.17121 -2.17121 0 3.43128e-17 0 2.12634e-10 0 0 
1566.39 0.00245628 -0.0048291 -0.0048291 0 0 0 -1.41437e-12 -2.17121 -2.17121 0 3.43128e-17 0 2.13205e-10 0 0 
1566.44 0.00245628 -0.0048291 -0.0048291 0 0 0 -1.32444e-12 -2.17121 -2.17121 0 3.43128e-17 0 2.13777e-10 0 0 
1566.5 0.00245628 -0.0048291 -0.0048291 0 0 0 -1.14458e-12 -2.17121 -2.17121 0 3.43128e-17 0 2.14348e-10 0 0 
1566.56 0.00245628 -0.0048291 -0.0048291 0 0 0 -9.64728e-13 -2.17121 -2.17121 0 3.43128e-17 0 2.1492e-10 0 0 
1566.61 0.00245628 -0.0048291 -0.0048291 0 0 0 -6.05016e-13 -2.17121 -2.17121 0 3.43128e-17 0 2.15491e-10 0 0 
1566.67 0.00245628 -0.0048291 -0.0048291 0 0 0 -3.35232e-13 -2.17121 -2.17121 0 3.43128e-17 0 2.16063e-10 0 0 
1566.72 0.00245628 -0.0048291 -0.0048291 0 0 0 -4.2516e-13 -2.17121 -2.17121 0 3.43128e-17 0 2.16634e-10 0 0 
1566.78 0.00245628 -0.0048291 -0.0048291 0 0 0 -3.35232e-13 -2.17121 -2.17121 0 3.43128e-17 0 2.17206e-10 0 0 
1566.83 0.00245628 -0.0048291 -0.0048291 0 0 0 -6.54476e-14 -2.17121 -2.17121 0 3.43128e-17 0 2.17777e-10 0 0 
1566.89 0.00245628 -0.0048291 -0.0048291 0 0 0 2.94265e-13 -2.17121 -2.17121 0 3.43128e-17 0 2.18349e-10 0 0 
1566.94 0.00245628 -0.0048291 -0.0048291 0 0 0 4.74121e-13 -2.17121 -2.17121 0 3.43128e-17 0 2.1892e-10 0 0 
1567 0.00245628 -0.0048291 -0.0048291 0 0 0 3.84193e-13 -2.17121 -2.17121 0 3.43128e-17 0 2.19492e-10 0 0 
1567 1.33227e-15 0 0 0 0 0 5.31042e-13 1.38556e-13 1.38556e-13 0 9.46633e-30 0 2.19492e-10 0 0 
1567.06 1.11022e-15 0 0 0 0 0 4.42535e-13 1.15463e-13 1.15463e-13 0 7.88861e-30 0 2.19492e-10 0 0 
1567.11 1.77636e-15 0 0 0 0 0 7.08056e-13 1.84741e-13 1.84741e-13 0 1.26218e-29 0 2.19492e-10 0 0 
1567.17 1.77636e-15 0 0 0 0 0 7.08056e-13 1.84741e-13 1.84741e-13 0 1.26218e-29 0 2.19492e-10 0 0 
1567.22 1.11022e-15 0 0 0 0 0 4.42535e-13 1.15463e-13 1.15463e-13 0 7.88861e-30 0 2.19492e-10 0 0 
1567.28 1.33227e-15 0 0 0 0 0 5.31042e-13 1.38556e-13 1.38556e-13 0 9.46633e-30 0 2.19492e-10 0 0 
1567.33 1.33227e-15 0 0 0 0 0 5.31042e-13 1.38556e-13 1.38556e-13 0 9.46633e-30 0 2.19492e-10 0 0 
1567.39 1.11022e-15 0 0 0 0 0 4.42535e-13 1.15463e-13 1.15463e-13 0 7.88861e-30 0 2.19492e-10 0 0 
1567.44 8.88178e-16 0 0 0 0 0 3.54028e-13 9.23706e-14 9.23706e-14 0 6.31089e-30 0 2.19492e-10 0 0 
1567.5 8.88178e-16 0 0 0 0 0 3.54028e-13 9.23706e-14 9.23706e-14 0 6.31089e-30 0 2.19492e-10 0 0 
1567.55 6.66134e-16 0 0 0 0 0 2.65521e-13 6.92779e-14 6.92779e-14 0 4.73317e-30 0 2.19492e-10 0 0 
1567.61 6.66134e-16 0 0 0 0 0 2.65521e-13 6.92779e-14 6.92779e-14 0 4.73317e-30 0 2.19492e-10 0 0 
1567.66 4.44089e-16 0 0 0 0 0 1.77014e-13 4.61853e-14 4.61853e-14 0 3.15544e-30 0 2.19492e-10 0 0 
1567.72 4.44089e-16 0 0 0 0 0 1.77014e-13 4.61853e-14 4.61853e-14 0 3.15544e-30 0 2.19492e-10 0 0 
1567.77 6.66134e-16 0 0 0 0 0 2.65521e-13 6.92779e-14 6.92779e-14 0 4.73317e-30 0 2.19492e-10 0 0 
1567.83 2.22045e-16 0 0 0 0 0 8.8507e-14 2.30926e-14 2.30926e-14 0 1.57772e-30 0 2.19492e-10 0 0 
1567.88 8.88178e-16 0 0 0 0 0 3.54028e-13 9.23706e-14 9.23706e-14 0 6.31089e-30 0 2.19492e-10 0 0 
1567.94 1.33227e-15 0 0 0 0 0 5.31042e-13 1.38556e-13 1.38556e-13 0 9.46633e-30 0 2.19492e-10 0 0 
1567.99 6.66134e-16 0 0 0 0 0 2.65521e-13 6.92779e-14 6.92779e-14 0 4.73317e-30 0 2.19492e-10 0 0 
1568.05 0 0 0 0 0 0 0 0 0 0 0 0 2.19492e-10 0 0 
1568.1 -2.22045e-16 0 0 0 0 0 -8.8507e-14 -2.30926e-14 -2.30926e-14 0 -1.57772e-30 0 2.19492e-10 0 0 
1568.16 0 0 0 0 0 0 0 0 0 0 0 0 2.19492e-10 0 0 
1568.21 -2.22045e-16 0 0 0 0 0 -8.8507e-14 -2.30926e-14 -2.30926e-14 0 -1.57772e-30 0 2.19492e-10 0 0 
1568.27 -6.66134e-16 0 0 0 0 0 -2.65521e-13 -6.92779e-14 -6.92779e-14 0 -4.73317e-30 0 2.19492e-10 0 0 
1568.32 -1.11022e-15 0 0 0 0 0 -4.42535e-13 -1.15463e-13 -1.15463e-13 0 -7.88861e-30 0 2.19492e-10 0 0 
1568.38 -8.88178e-16 0 0 0 0 0 -3.54028e-13 -9.23706e-14 -9.23706e-14 0 -6.31089e-30 0 2.19492e-10 0 0 
1568.43 -2.22045e-16 0 0 0 0 0 -8.8507e-14 -2.30926e-14 -2.30926e-14 0 -1.57772e-30 0 2.19492e-10 0 0 
1568.49 -2.22045e-16 0 0 0 0 0 -8.8507e-14 -2.30926e-14 -2.30926e-14 0 -1.57772e-30 0 2.19492e-10 0 0 
1568.54 -6.66134e-16 0 0 0 0 0 -2.65521e-13 -6.92779e-14 -6.92779e-14 0 -4.73317e-30 0 2.19492e-10 0 0 
1568.6 -6.66134e-16 0 0 0 0 0 -2.65521e-13 -6.92779e-14 -6.92779e-14 0 -4.73317e-30 0 2.19492e-10 0 0 
1568.65 -6.66134e-16 0 0 0 0 0 -2.65521e-13 -6.92779e-14 -6.92779e-14 0 -4.73317e-30 0 2.19492e-10 0 0 
1568.71 -8.88178e-16 0 0 0 0 0 -3.54028e-13 -9.23706e-14 -9.23706e-14 0 -6.31089e-30 0 2.19492e-10 0 0 
1568.76 -1.33227e-15 0 0 0 0 0 -5.31042e-13 -1.38556e-13 -1.38556e-13 0 -9.46633e-30 0 2.19492e-10 0 0 
1568.82 -1.9984e-15 0 0 0 0 0 -7.96563e-13 -2.07834e-13 -2.07834e-13 0 -1.41995e-29 0 2.19492e-10 0 0 
1568.87 -1.9984e-15 0 0 0 0 0 -7.96563e-13 -2.07834e-13 -2.07834e-13 0 -1.41995e-29 0 2.19492e-10 0 0 
1568.93 -1.11022e-15 0 0 0 0 0 -4.42535e-13 -1.15463e-13 -1.15463e-13 0 -7.88861e-30 0 2.19492e-10 0 0 
1568.98 -2.22045e-16 0 0 0 0 0 -8.8507e-14 -2.30926e-14 -2.30926e-14 0 -1.57772e-30 0 2.19492e-10 0 0 
1569.04 2.22045e-16 0 0 0 0 0 8.8507e-14 2.30926e-14 2.30926e-14 0 1.57772e-30 0 2.19492e-10 0 0 
1569.09 6.66134e-16 0 0 0 0 0 2.65521e-13 6.92779e-14 6.92779e-14 0 4.73317e-30 0 2.19492e-10 0 0 
1569.15 1.11022e-15 0 0 0 0 0 4.42535e-13 1.15463e-13 1.15463e-13 0 7.88861e-30 0 2.19492e-10 0 0 
1569.2 6.66134e-16 0 0 0 0 0 2.65521e-13 6.92779e-14 6.92779e-14 0 4.73317e-30 0 2.19492e-10 0 0 
1569.26 6.66134e-16 0 0 0 0 0 2.65521e-13 6.92779e-14 6.92779e-14 0 4.73317e-30 0 2.19492e-10 0 0 
1569.31 1.11022e-15 0 0 0 0 0 4.42535e-13 1.15463e-13 1.15463e-13 0 7.88861e-30 0 2.19492e-10 0 0 
1569.37 1.11022e-15 0 0 0 0 0 4.42535e-13 1.15463e-13 1.15463e-13 0 7.88861e-30 0 2.19492e-10 0 0 
1569.42 1.55431e-15 0 0 0 0 0 6.19549e-13 1.61648e-13 1.61648e-13 0 1.10441e-29 0 2.19492e-10 0 0 
1569.48 1.77636e-15 0 0 0 0 0 7.08056e-13 1.84741e-13 1.84741e-13 0 1.26218e-29 0 2.19492e-10 0 0 
1569.53 1.33227e-15 0 0 0 0 0 5.31042e-13 1.38556e-13 1.38556e-13 0 9.46633e-30 0 2.19492e-10 0 0 
1569.59 4.44089e-16 0 0 0 0 0 1.77014e-13 4.61853e-14 4.61853e-14 0 3.15544e-30 0 2.19492e-10 0 0 
1569.64 1.55431e-15 0 0 0 0 0 6.19549e-13 1.61648e-13 1.61648e-13 0 1.10441e-29 0 2.19492e-10 0 0 
1569.7 3.10862e-15 0 0 0 0 0 1.2391e-12 3.23297e-13 3.23297e-13 0 2.20881e-29 0 2.19492e-10 0 0 
1569.75 3.10862e-15 0 0 0 0 0 1.2391e-12 3.23297e-13 3.23297e-13 0 2.20881e-29 0 2.19492e-10 0 0 
1569.81 3.10862e-15 0 0 0 0 0 1.2391e-12 3.23297e-13 3.23297e-13 0 2.20881e-29 0 2.19492e-10 0 0 
1569.86 3.10862e-15 0 0 0 0 0 1.2391e-12 3.23297e-13 3.23297e-13 0 2.20881e-29 0 2.19492e-10 0 0 
1569.92 3.10862e-15 0 0 0 0 0 1.2391e-12 3.23297e-13 3.23297e-13 0 2.20881e-29 0 2.19492e-10 0 0 
1569.97 2.88658e-15 0 0 0 0 0 1.15059e-12 3.00204e-13 3.00204e-13 0 2.05104e-29 0 2.19492e-10 0 0 
1570.03 2.88658e-15 0 0 0 0 0 1.15059e-12 3.00204e-13 3.00204e-13 0 2.05104e-29 0 2.19492e-10 0 0 
1570.08 3.33067e-15 0 0 0 0 0 1.3276e-12 3.4639e-13 3.4639e-13 0 2.36658e-29 0 2.19492e-10 0 0 
1570.14 3.55271e-15 0 0 0 0 0 1.41611e-12 3.69482e-13 3.69482e-13 0 2.52435e-29 0 2.19492e-10 0 0 
1570.19 3.55271e-15 0 0 0 0 0 1.41611e-12 3.69482e-13 3.69482e-13 0 2.52435e-29 0 2.19492e-10 0 0 
1570.25 3.77476e-15 0 0 0 0 0 1.50462e-12 3.92575e-13 3.92575e-13 0 2.68213e-29 0 2.19492e-10 0 0 
1570.3 5.10703e-15 0 0 0 0 0 2.03566e-12 5.31131e-13 5.31131e-13 0 3.62876e-29 0 2.19492e-10 0 0 
1570.36 6.43929e-15 0 0 0 0 0 2.5667e-12 6.69687e-13 6.69687e-13 0 4.57539e-29 0 2.19492e-10 0 0 
1570.41 6.43929e-15 0 0 0 0 0 2.5667e-12 6.69687e-13 6.69687e-13 0 4.57539e-29 0 2.19492e-10 0 0 
1570.47 6.21725e-15 0 0 0 0 0 2.4782e-12 6.46594e-13 6.46594e-13 0 4.41762e-29 0 2.19492e-10 0 0 
1570.52 6.43929e-15 0 0 0 0 0 2.5667e-12 6.69687e-13 6.69687e-13 0 4.57539e-29 0 2.19492e-10 0 0 
1570.58 6.43929e-15 0 0 0 0 0 2.5667e-12 6.69687e-13 6.69687e-13 0 4.57539e-29 0 2.19492e-10 0 0 
1570.63 6.43929e-15 0 0 0 0 0 2.5667e-12 6.69687e-13 6.69687e-13 0 4.57539e-29 0 2.19492e-10 0 0 
1570.69 6.66134e-15 0 0 0 0 0 2.65521e-12 6.92779e-13 6.92779e-13 0 4.73317e-29 0 2.19492e-10 0 0 
1570.74 6.43929e-15 0 0 0 0 0 2.5667e-12 6.69687e-13 6.69687e-13 0 4.57539e-29 0 2.19492e-10 0 0 
1570.8 6.43929e-15 0 0 0 0 0 2.5667e-12 6.69687e-13 6.69687e-13 0 4.57539e-29 0 2.19492e-10 0 0 
1570.85 6.43929e-15 0 0 0 0 0 2.5667e-12 6.69687e-13 6.69687e-13 0 4.57539e-29 0 2.19492e-10 0 0 
1570.91 6.43929e-15 0 0 0 0 0 2.5667e-12 6.69687e-13 6.69687e-13 0 4.57539e-29 0 2.19492e-10 0 0 
1570.96 7.32747e-15 0 0 0 0 0 2.92073e-12 7.62057e-13 7.62057e-13 0 5.20648e-29 0 2.19492e-10 0 0 
1571.02 7.99361e-15 0 0 0 0 0 3.18625e-12 8.31335e-13 8.31335e-13 0 5.6798e-29 0 2.19492e-10 0 0 
1571.07 7.77156e-15 0 0 0 0 0 3.09774e-12 8.08242e-13 8.08242e-13 0 5.52203e-29 0 2.19492e-10 0 0 
1571.13 7.54952e-15 0 0 0 0 0 3.00924e-12 7.8515e-13 7.8515e-13 0 5.36425e-29 0 2.19492e-10 0 0 
1571.18 7.99361e-15 0 0 0 0 0 3.18625e-12 8.31335e-13 8.31335e-13 0 5.6798e-29 0 2.19492e-10 0 0 
1571.24 8.43769e-15 0 0 0 0 0 3.36327e-12 8.7752e-13 8.7752e-13 0 5.99534e-29 0 2.19492e-10 0 0 
1571.29 8.43769e-15 0 0 0 0 0 3.36327e-12 8.7752e-13 8.7752e-13 0 5.99534e-29 0 2.19492e-10 0 0 
1571.35 7.77156e-15 0 0 0 0 0 3.09774e-12 8.08242e-13 8.08242e-13 0 5.52203e-29 0 2.19492e-10 0 0 
1571.4 6.88338e-15 0 0 0 0 0 2.74372e-12 7.15872e-13 7.15872e-13 0 4.89094e-29 0 2.19492e-10 0 0 
1571.46 7.10543e-15 0 0 0 0 0 2.83222e-12 7.38964e-13 7.38964e-13 0 5.04871e-29 0 2.19492e-10 0 0 
1571.51 6.88338e-15 0 0 0 0 0 2.74372e-12 7.15872e-13 7.15872e-13 0 4.89094e-29 0 2.19492e-10 0 0 
1571.57 6.43929e-15 0 0 0 0 0 2.5667e-12 6.69687e-13 6.69687e-13 0 4.57539e-29 0 2.19492e-10 0 0 
1571.62 6.43929e-15 0 0 0 0 0 2.5667e-12 6.69687e-13 6.69687e-13 0 4.57539e-29 0 2.19492e-10 0 0 
1571.68 6.88338e-15 0 0 0 0 0 2.74372e-12 7.15872e-13 7.15872e-13 0 4.89094e-29 0 2.19492e-10 0 0 
1571.73 6.88338e-15 0 0 0 0 0 2.74372e-12 7.15872e-13 7.15872e-13 0 4.89094e-29 0 2.19492e-10 0 0 
1571.79 5.9952e-15 0 0 0 0 0 2.38969e-12 6.23501e-13 6.23501e-13 0 4.25985e-29 0 2.19492e-10 0 0 
1571.84 5.32907e-15 0 0 0 0 0 2.12417e-12 5.54223e-13 5.54223e-13 0 3.78653e-29 0 2.19492e-10 0 0 
1571.9 5.10703e-15 0 0 0 0 0 2.03566e-12 5.31131e-13 5.31131e-13 0 3.62876e-29 0 2.19492e-10 0 0 
1571.95 5.32907e-15 0 0 0 0 0 2.12417e-12 5.54223e-13 5.54223e-13 0 3.78653e-29 0 2.19492e-10 0 0 
1572.01 5.32907e-15 0 0 0 0 0 2.12417e-12 5.54223e-13 5.54223e-13 0 3.78653e-29 0 2.19492e-10 0 0 
1572.06 4.88498e-15 0 0 0 0 0 1.94715e-12 5.08038e-13 5.08038e-13 0 3.47099e-29 0 2.19492e-10 0 0 
1572.12 4.66294e-15 0 0 0 0 0 1.85865e-12 4.84945e-13 4.84945e-13 0 3.31322e-29 0 2.19492e-10 0 0 
1572.17 4.21885e-15 0 0 0 0 0 1.68163e-12 4.3876e-13 4.3876e-13 0 2.99767e-29 0 2.19492e-10 0 0 
1572.23 3.77476e-15 0 0 0 0 0 1.50462e-12 3.92575e-13 3.92575e-13 0 2.68213e-29 0 2.19492e-10 0 0 
1572.28 3.77476e-15 0 0 0 0 0 1.50462e-12 3.92575e-13 3.92575e-13 0 2.68213e-29 0 2.19492e-10 0 0 
1572.34 2.44249e-15 0 0 0 0 0 9.73577e-13 2.54019e-13 2.54019e-13 0 1.73549e-29 0 2.19492e-10 0 0 
1572.39 1.9984e-15 0 0 0 0 0 7.96563e-13 2.07834e-13 2.07834e-13 0 1.41995e-29 0 2.19492e-10 0 0 
1572.45 2.44249e-15 0 0 0 0 0 9.73577e-13 2.54019e-13 2.54019e-13 0 1.73549e-29 0 2.19492e-10 0 0 
1572.5 1.9984e-15 0 0 0 0 0 7.96563e-13 2.07834e-13 2.07834e-13 0 1.41995e-29 0 2.19492e-10 0 0 
1572.56 2.22045e-15 0 0 0 0 0 8.8507e-13 2.30926e-13 2.30926e-13 0 1.57772e-29 0 2.19492e-10 0 0 
1572.61 1.9984e-15 0 0 0 0 0 7.96563e-13 2.07834e-13 2.07834e-13 0 1.41995e-29 0 2.19492e-10 0 0 
1572.67 1.55431e-15 0 0 0 0 0 6.19549e-13 1.61648e-13 1.61648e-13 0 1.10441e-29 0 2.19492e-10 0 0 
1572.72 1.11022e-15 0 0 0 0 0 4.42535e-13 1.15463e-13 1.15463e-13 0 7.88861e-30 0 2.19492e-10 0 0 
1572.78 2.22045e-16 0 0 0 0 0 8.8507e-14 2.30926e-14 2.30926e-14 0 1.57772e-30 0 2.19492e-10 0 0 
1572.83 2.22045e-16 0 0 0 0 0 8.8507e-14 2.30926e-14 2.30926e-14 0 1.57772e-30 0 2.19492e-10 0 0 
1572.89 2.22045e-16 0 0 0 0 0 8.8507e-14 2.30926e-14 2.30926e-14 0 1.57772e-30 0 2.19492e-10 0 0 
1572.94 4.44089e-16 0 0 0 0 0 1.77014e-13 4.61853e-14 4.61853e-14 0 3.15544e-30 0 2.19492e-10 0 0 
1573 8.88178e-16 0 0 0 0 0 3.54028e-13 9.23706e-14 9.23706e-14 0 6.31089e-30 0 2.19492e-10 0 0 
1573 4.44089e-16 0 0 0 0 0 1.77014e-13 4.61853e-14 4.61853e-14 0 3.15544e-30 0 2.19492e-10 0 0 
1573.06 0 0 0 0 0 0 0 0 0 0 0 0 2.19492e-10 0 0 
1573.13 -4.44089e-16 0 0 0 0 0 -1.77014e-13 -4.61853e-14 -4.61853e-14 0 -3.15544e-30 0 2.19492e-10 0 0 
1573.22 -2.22045e-16 0 0 0 0 0 -8.8507e-14 -2.30926e-14 -2.30926e-14 0 -1.57772e-30 0 2.19492e-10 0 0 
1573.32 -1.11022e-16 0 0 0 0 0 -4.42535e-14 -1.15463e-14 -1.15463e-14 0 -7.88861e-31 0 2.19492e-10 0 0 
1573.43 -2.22045e-16 0 0 0 0 0 -8.8507e-14 -2.30926e-14 -2.30926e-14 0 -1.57772e-30 0 2.19492e-10 0 0 
1573.57 -2.22045e-16 0 0 0 0 0 -8.8507e-14 -2.30926e-14 -2.30926e-14 0 -1.57772e-30 0 2.19492e-10 0 0 
1573.73 -2.22045e-16 0 0 0 0 0 -8.8507e-14 -2.30926e-14 -2.30926e-14 0 -1.57772e-30 0 2.19492e-10 0 0 
1573.92 -1.66533e-16 0 0 0 0 0 -6.63802e-14 -1.73195e-14 -1.73195e-14 0 -1.18329e-30 0 2.19492e-10 0 0 
1574.14 -2.77556e-16 0 0 0 0 0 -1.10634e-13 -2.88658e-14 -2.88658e-14 0 -1.97215e-30 0 2.19492e-10 0 0 
1574.4 -4.44089e-16 0 0 0 0 0 -1.77014e-13 -4.61853e-14 -4.61853e-14 0 -3.15544e-30 0 2.19492e-10 0 0 
1574.71 -4.44089e-16 0 0 0 0 0 -1.77014e-13 -4.61853e-14 -4.61853e-14 0 -3.15544e-30 0 2.19492e-10 0 0 
1575.07 -4.44089e-16 0 0 0 0 0 -1.77014e-13 -4.61853e-14 -4.61853e-14 0 -3.15544e-30 0 2.19492e-10 0 0 
1575.49 -5.27356e-16 0 0 0 0 0 -2.10204e-13 -5.4845e-14 -5.4845e-14 0 -3.74709e-30 0 2.19492e-10 0 0 
1575.98 -6.10623e-16 0 0 0 0 0 -2.43394e-13 -6.35048e-14 -6.35048e-14 0 -4.33873e-30 0 2.19492e-10 0 0 
1576.57 -6.66134e-16 0 0 0 0 0 -2.65521e-13 -6.92779e-14 -6.92779e-14 0 -4.73317e-30 0 2.19492e-10 0 0 
1577.25 -6.93889e-16 0 0 0 0 0 -2.76584e-13 -7.21645e-14 -7.21645e-14 0 -4.93038e-30 0 2.19492e-10 0 0 
1578.06 -6.93889e-16 0 0 0 0 0 -2.76584e-13 -7.21645e-14 -7.21645e-14 0 -4.93038e-30 0 2.19492e-10 0 0 
1579 -7.21645e-16 0 0 0 0 0 -2.87648e-13 -7.50511e-14 -7.50511e-14 0 -5.1276e-30 0 2.19492e-10 0 0 
1579 -7.77156e-16 0 0 0 0 0 -3.09774e-13 -8.08242e-14 -8.08242e-14 0 -5.52203e-30 0 2.19492e-10 0 0 
1580.01 -7.63278e-16 0 0 0 0 0 -3.04243e-13 -7.93809e-14 -7.93809e-14 0 -5.42342e-30 0 2.19492e-10 0 0 
1581.02 -8.04912e-16 0 0 0 0 0 -3.20838e-13 -8.37108e-14 -8.37108e-14 0 -5.71924e-30 0 2.19492e-10 0 0 
1582.03 -8.32667e-16 0 0 0 0 0 -3.31901e-13 -8.65974e-14 -8.65974e-14 0 -5.91646e-30 0 2.19492e-10 0 0 
1583.04 -8.04912e-16 0 0 0 0 0 -3.20838e-13 -8.37108e-14 -8.37108e-14 0 -5.71924e-30 0 2.19492e-10 0 0 
1584.06 -8.46545e-16 0 0 0 0 0 -3.37433e-13 -8.80407e-14 -8.80407e-14 0 -6.01506e-30 0 2.19492e-10 0 0 
1585.07 -8.32667e-16 0 0 0 0 0 -3.31901e-13 -8.65974e-14 -8.65974e-14 0 -5.91646e-30 0 2.19492e-10 0 0 
1586.08 -7.77156e-16 0 0 0 0 0 -3.09774e-13 -8.08242e-14 -8.08242e-14 0 -5.52203e-30 0 2.19492e-10 0 0 
1587.09 -7.91034e-16 0 0 0 0 0 -3.15306e-13 -8.22675e-14 -8.22675e-14 0 -5.62063e-30 0 2.19492e-10 0 0 
1588.1 -7.91034e-16 0 0 0 0 0 -3.15306e-13 -8.22675e-14 -8.22675e-14 0 -5.62063e-30 0 2.19492e-10 0 0 
1589.11 -7.91034e-16 0 0 0 0 0 -3.15306e-13 -8.22675e-14 -8.22675e-14 0 -5.62063e-30 0 2.19492e-10 0 0 
1590.12 -7.35523e-16 0 0 0 0 0 -2.93179e-13 -7.64944e-14 -7.64944e-14 0 -5.2262e-30 0 2.19492e-10 0 0 
1591.13 -7.35523e-16 0 0 0 0 0 -2.93179e-13 -7.64944e-14 -7.64944e-14 0 -5.2262e-30 0 2.19492e-10 0 0 
1592.14 -7.77156e-16 0 0 0 0 0 -3.09774e-13 -8.08242e-14 -8.08242e-14 0 -5.52203e-30 0 2.19492e-10 0 0 
1593.16 -7.07767e-16 0 0 0 0 0 -2.82116e-13 -7.36078e-14 -7.36078e-14 0 -5.02899e-30 0 2.19492e-10 0 0 
1594.17 -6.93889e-16 0 0 0 0 0 -2.76584e-13 -7.21645e-14 -7.21645e-14 0 -4.93038e-30 0 2.19492e-10 0 0 
1595.18 -6.80012e-16 0 0 0 0 0 -2.71053e-13 -7.07212e-14 -7.07212e-14 0 -4.83177e-30 0 2.19492e-10 0 0 
1596.19 -6.245e-16 0 0 0 0 0 -2.48926e-13 -6.4948e-14 -6.4948e-14 0 -4.43734e-30 0 2.19492e-10 0 0 
1597.2 -6.245e-16 0 0 0 0 0 -2.48926e-13 -6.4948e-14 -6.4948e-14 0 -4.43734e-30 0 2.19492e-10 0 0 
1598.21 -6.52256e-16 0 0 0 0 0 -2.59989e-13 -6.78346e-14 -6.78346e-14 0 -4.63456e-30 0 2.19492e-10 0 0 
1599.22 -6.38378e-16 0 0 0 0 0 -2.54458e-13 -6.63913e-14 -6.63913e-14 0 -4.53595e-30 0 2.19492e-10 0 0 
1600.23 -6.10623e-16 0 0 0 0 0 -2.43394e-13 -6.35048e-14 -6.35048e-14 0 -4.33873e-30 0 2.19492e-10 0 0 
1601.24 -5.68989e-16 0 0 0 0 0 -2.26799e-13 -5.91749e-14 -5.91749e-14 0 -4.04291e-30 0 2.19492e-10 0 0 
1602.26 -5.13478e-16 0 0 0 0 0 -2.04672e-13 -5.34017e-14 -5.34017e-14 0 -3.64848e-30 0 2.19492e-10 0 0 
1603.27 -4.85723e-16 0 0 0 0 0 -1.93609e-13 -5.05151e-14 -5.05151e-14 0 -3.45127e-30 0 2.19492e-10 0 0 
1604.28 -4.996e-16 0 0 0 0 0 -1.99141e-13 -5.19584e-14 -5.19584e-14 0 -3.54987e-30 0 2.19492e-10 0 0 
1605.29 -5.13478e-16 0 0 0 0 0 -2.04672e-13 -5.34017e-14 -5.34017e-14 0 -3.64848e-30 0 2.19492e-10 0 0 
1606.3 -4.996e-16 0 0 0 0 0 -1.99141e-13 -5.19584e-14 -5.19584e-14 0 -3.54987e-30 0 2.19492e-10 0 0 
1607.31 -4.71845e-16 0 0 0 0 0 -1.88077e-13 -4.90719e-14 -4.90719e-14 0 -3.35266e-30 0 2.19492e-10 0 0 
1608.32 -4.44089e-16 0 0 0 0 0 -1.77014e-13 -4.61853e-14 -4.61853e-14 0 -3.15544e-30 0 2.19492e-10 0 0 
1609.33 -4.44089e-16 0 0 0 0 0 -1.77014e-13 -4.61853e-14 -4.61853e-14 0 -3.15544e-30 0 2.19492e-10 0 0 
1610.34 -4.30211e-16 0 0 0 0 0 -1.71482e-13 -4.4742e-14 -4.4742e-14 0 -3.05684e-30 0 2.19492e-10 0 0 
1611.36 -3.747e-16 0 0 0 0 0 -1.49356e-13 -3.89688e-14 -3.89688e-14 0 -2.66241e-30 0 2.19492e-10 0 0 
1612.37 -3.46945e-16 0 0 0 0 0 -1.38292e-13 -3.60822e-14 -3.60822e-14 0 -2.46519e-30 0 2.19492e-10 0 0 
1613.38 -3.46945e-16 0 0 0 0 0 -1.38292e-13 -3.60822e-14 -3.60822e-14 0 -2.46519e-30 0 2.19492e-10 0 0 
1614.39 -3.33067e-16 0 0 0 0 0 -1.3276e-13 -3.4639e-14 -3.4639e-14 0 -2.36658e-30 0 2.19492e-10 0 0 
1615.4 -3.46945e-16 0 0 0 0 0 -1.38292e-13 -3.60822e-14 -3.60822e-14 0 -2.46519e-30 0 2.19492e-10 0 0 
1616.41 -3.46945e-16 0 0 0 0 0 -1.38292e-13 -3.60822e-14 -3.60822e-14 0 -2.46519e-30 0 2.19492e-10 0 0 
1617.42 -3.46945e-16 0 0 0 0 0 -1.38292e-13 -3.60822e-14 -3.60822e-14 0 -2.46519e-30 0 2.19492e-10 0 0 
1618.43 -3.60822e-16 0 0 0 0 0 -1.43824e-13 -3.75255e-14 -3.75255e-14 0 -2.5638e-30 0 2.19492e-10 0 0 
1619.44 -3.60822e-16 0 0 0 0 0 -1.43824e-13 -3.75255e-14 -3.75255e-14 0 -2.5638e-30 0 2.19492e-10 0 0 
1620.46 -3.60822e-16 0 0 0 0 0 -1.43824e-13 -3.75255e-14 -3.75255e-14 0 -2.5638e-30 0 2.19492e-10 0 0 
1621.47 -3.60822e-16 0 0 0 0 0 -1.43824e-13 -3.75255e-14 -3.75255e-14 0 -2.5638e-30 0 2.19492e-10 0 0 
1622.48 -3.60822e-16 0 0 0 0 0 -1.43824e-13 -3.75255e-14 -3.75255e-14 0 -2.5638e-30 0 2.19492e-10 0 0 
1623.49 -3.60822e-16 0 0 0 0 0 -1.43824e-13 -3.75255e-14 -3.75255e-14 0 -2.5638e-30 0 2.19492e-10 0 0 
1624.5 -3.747e-16 0 0 0 0 0 -1.49356e-13 -3.89688e-14 -3.89688e-14 0 -2.66241e-30 0 2.19492e-10 0 0 
1625.51 -3.46945e-16 0 0 0 0 0 -1.38292e-13 -3.60822e-14 -3.60822e-14 0 -2.46519e-30 0 2.19492e-10 0 0 
1626.52 -3.19189e-16 0 0 0 0 0 -1.27229e-13 -3.31957e-14 -3.31957e-14 0 -2.26798e-30 0 2.19492e-10 0 0 
1627.53 -3.33067e-16 0 0 0 0 0 -1.3276e-13 -3.4639e-14 -3.4639e-14 0 -2.36658e-30 0 2.19492e-10 0 0 
1628.54 -3.46945e-16 0 0 0 0 0 -1.38292e-13 -3.60822e-14 -3.60822e-14 0 -2.46519e-30 0 2.19492e-10 0 0 
1629.56 -3.33067e-16 0 0 0 0 0 -1.3276e-13 -3.4639e-14 -3.4639e-14 0 -2.36658e-30 0 2.19492e-10 0 0 
1630.57 -2.91434e-16 0 0 0 0 0 -1.16165e-13 -3.03091e-14 -3.03091e-14 0 -2.07076e-30 0 2.19492e-10 0 0 
1631.58 -2.91434e-16 0 0 0 0 0 -1.16165e-13 -3.03091e-14 -3.03091e-14 0 -2.07076e-30 0 2.19492e-10 0 0 
1632.59 -2.91434e-16 0 0 0 0 0 -1.16165e-13 -3.03091e-14 -3.03091e-14 0 -2.07076e-30 0 2.19492e-10 0 0 
1633.6 -2.77556e-16 0 0 0 0 0 -1.10634e-13 -2.88658e-14 -2.88658e-14 0 -1.97215e-30 0 2.19492e-10 0 0 
1634.61 -2.77556e-16 0 0 0 0 0 -1.10634e-13 -2.88658e-14 -2.88658e-14 0 -1.97215e-30 0 2.19492e-10 0 0 
1635.62 -2.498e-16 0 0 0 0 0 -9.95704e-14 -2.59792e-14 -2.59792e-14 0 -1.77494e-30 0 2.19492e-10 0 0 
1636.63 -2.498e-16 0 0 0 0 0 -9.95704e-14 -2.59792e-14 -2.59792e-14 0 -1.77494e-30 0 2.19492e-10 0 0 
1637.64 -2.498e-16 0 0 0 0 0 -9.95704e-14 -2.59792e-14 -2.59792e-14 0 -1.77494e-30 0 2.19492e-10 0 0 
1638.66 -1.94289e-16 0 0 0 0 0 -7.74436e-14 -2.02061e-14 -2.02061e-14 0 -1.38051e-30 0 2.19492e-10 0 0 
1639.67 -1.94289e-16 0 0 0 0 0 -7.74436e-14 -2.02061e-14 -2.02061e-14 0 -1.38051e-30 0 2.19492e-10 0 0 
1640.68 -2.498e-16 0 0 0 0 0 -9.95704e-14 -2.59792e-14 -2.59792e-14 0 -1.77494e-30 0 2.19492e-10 0 0 
1641.69 -2.63678e-16 0 0 0 0 0 -1.05102e-13 -2.74225e-14 -2.74225e-14 0 -1.87354e-30 0 2.19492e-10 0 0 
1642.7 -2.22045e-16 0 0 0 0 0 -8.8507e-14 -2.30926e-14 -2.30926e-14 0 -1.57772e-30 0 2.19492e-10 0 0 
1643.71 -1.94289e-16 0 0 0 0 0 -7.74436e-14 -2.02061e-14 -2.02061e-14 0 -1.38051e-30 0 2.19492e-10 0 0 
1644.72 -1.80411e-16 0 0 0 0 0 -7.19119e-14 -1.87628e-14 -1.87628e-14 0 -1.2819e-30 0 2.19492e-10 0 0 
1645.73 -1.94289e-16 0 0 0 0 0 -7.74436e-14 -2.02061e-14 -2.02061e-14 0 -1.38051e-30 0 2.19492e-10 0 0 
1646.74 -2.22045e-16 0 0 0 0 0 -8.8507e-14 -2.30926e-14 -2.30926e-14 0 -1.57772e-30 0 2.19492e-10 0 0 
1647.76 -2.35922e-16 0 0 0 0 0 -9.40387e-14 -2.45359e-14 -2.45359e-14 0 -1.67633e-30 0 2.19492e-10 0 0 
1648.77 -2.498e-16 0 0 0 0 0 -9.95704e-14 -2.59792e-14 -2.59792e-14 0 -1.77494e-30 0 2.19492e-10 0 0 
1649.78 -2.35922e-16 0 0 0 0 0 -9.40387e-14 -2.45359e-14 -2.45359e-14 0 -1.67633e-30 0 2.19492e-10 0 0 
1650.79 -2.08167e-16 0 0 0 0 0 -8.29753e-14 -2.16493e-14 -2.16493e-14 0 -1.47911e-30 0 2.19492e-10 0 0 
1651.8 -1.80411e-16 0 0 0 0 0 -7.19119e-14 -1.87628e-14 -1.87628e-14 0 -1.2819e-30 0 2.19492e-10 0 0 
1652.81 -1.80411e-16 0 0 0 0 0 -7.19119e-14 -1.87628e-14 -1.87628e-14 0 -1.2819e-30 0 2.19492e-10 0 0 
1653.82 -2.08167e-16 0 0 0 0 0 -8.29753e-14 -2.16493e-14 -2.16493e-14 0 -1.47911e-30 0 2.19492e-10 0 0 
1654.83 -2.08167e-16 0 0 0 0 0 -8.29753e-14 -2.16493e-14 -2.16493e-14 0 -1.47911e-30 0 2.19492e-10 0 0 
1655.84 -1.66533e-16 0 0 0 0 0 -6.63802e-14 -1.73195e-14 -1.73195e-14 0 -1.18329e-30 0 2.19492e-10 0 0 
1656.86 -1.38778e-16 0 0 0 0 0 -5.53169e-14 -1.44329e-14 -1.44329e-14 0 -9.86076e-31 0 2.19492e-10 0 0 
1657.87 -1.249e-16 0 0 0 0 0 -4.97852e-14 -1.29896e-14 -1.29896e-14 0 -8.87469e-31 0 2.19492e-10 0 0 
1658.88 -1.11022e-16 0 0 0 0 0 -4.42535e-14 -1.15463e-14 -1.15463e-14 0 -7.88861e-31 0 2.19492e-10 0 0 
1659.89 -1.11022e-16 0 0 0 0 0 -4.42535e-14 -1.15463e-14 -1.15463e-14 0 -7.88861e-31 0 2.19492e-10 0 0 
1660.9 -1.249e-16 0 0 0 0 0 -4.97852e-14 -1.29896e-14 -1.29896e-14 0 -8.87469e-31 0 2.19492e-10 0 0 
1661.91 -9.71445e-17 0 0 0 0 0 -3.87218e-14 -1.0103e-14 -1.0103e-14 0 -6.90253e-31 0 2.19492e-10 0 0 
1662.92 -6.93889e-17 0 0 0 0 0 -2.76584e-14 -7.21645e-15 -7.21645e-15 0 -4.93038e-31 0 2.19492e-10 0 0 
1663.93 -1.249e-16 0 0 0 0 0 -4.97852e-14 -1.29896e-14 -1.29896e-14 0 -8.87469e-31 0 2.19492e-10 0 0 
1664.94 -1.52656e-16 0 0 0 0 0 -6.08485e-14 -1.58762e-14 -1.58762e-14 0 -1.08468e-30 0 2.19492e-10 0 0 
1665.96 -6.93889e-17 0 0 0 0 0 -2.76584e-14 -7.21645e-15 -7.21645e-15 0 -4.93038e-31 0 2.19492e-10 0 0 
1666.97 1.38778e-17 0 0 0 0 0 5.53169e-15 1.44329e-15 1.44329e-15 0 9.86076e-32 0 2.19492e-10 0 0 
1667.98 1.38778e-17 0 0 0 0 0 5.53169e-15 1.44329e-15 1.44329e-15 0 9.86076e-32 0 2.19492e-10 0 0 
1668.99 -1.38778e-17 0 0 0 0 0 -5.53169e-15 -1.44329e-15 -1.44329e-15 0 -9.86076e-32 0 2.19492e-10 0 0 
1670 -2.77556e-17 0 0 0 0 0 -1.10634e-14 -2.88658e-15 -2.88658e-15 0 -1.97215e-31 0 2.19492e-10 0 0 